*SPEF "ieee 1481-1999"
*DESIGN "tt_um_rknaga18_npu"
*DATE "08:41:35 Monday May 18, 2026"
*VENDOR "The OpenROAD Project"
*PROGRAM "OpenROAD"
*VERSION "d423155d69de7f683a23f6916ead418a615ad4ad"
*DESIGN_FLOW "NAME_SCOPE LOCAL" "PIN_CAP NONE"
*DIVIDER /
*DELIMITER :
*BUS_DELIMITER []
*T_UNIT 1 NS
*C_UNIT 1 PF
*R_UNIT 1 OHM
*L_UNIT 1 HENRY

*NAME_MAP
*3 clk
*4 ena
*5 rst_n
*6 ui_in[0]
*7 ui_in[1]
*8 ui_in[2]
*9 ui_in[3]
*10 ui_in[4]
*11 ui_in[5]
*12 ui_in[6]
*13 ui_in[7]
*14 uio_in[0]
*15 uio_in[1]
*16 uio_in[2]
*17 uio_in[3]
*18 uio_in[4]
*19 uio_in[5]
*20 uio_in[6]
*21 uio_in[7]
*22 uio_oe[0]
*23 uio_oe[1]
*24 uio_oe[2]
*25 uio_oe[3]
*26 uio_oe[4]
*27 uio_oe[5]
*28 uio_oe[6]
*29 uio_oe[7]
*30 uio_out[0]
*31 uio_out[1]
*32 uio_out[2]
*33 uio_out[3]
*34 uio_out[4]
*35 uio_out[5]
*36 uio_out[6]
*37 uio_out[7]
*38 uo_out[0]
*39 uo_out[1]
*40 uo_out[2]
*41 uo_out[3]
*42 uo_out[4]
*43 uo_out[5]
*44 uo_out[6]
*45 uo_out[7]
*46 _00_
*47 _01_
*48 _02_
*49 _03_
*50 _04_
*51 _05_
*52 _06_
*53 _07_
*54 _08_
*55 _09_
*56 _10_
*57 _11_
*58 _12_
*59 _13_
*60 _14_
*61 _15_
*62 _16_
*63 _17_
*64 _18_
*65 _19_
*66 _20_
*67 _21_
*68 _22_
*69 _23_
*70 _24_
*71 _25_
*72 _26_
*73 _27_
*74 _28_
*75 net1
*76 net10
*77 net11
*78 net12
*79 net13
*80 net14
*81 net15
*82 net16
*83 net17
*84 net18
*85 net19
*86 net2
*87 net20
*88 net21
*89 net22
*90 net23
*91 net24
*92 net25
*93 net26
*94 net27
*95 net28
*96 net29
*97 net3
*98 net30
*99 net31
*100 net32
*101 net4
*102 net5
*103 net6
*104 net7
*105 net8
*106 net9
*107 FILLER_0_0_109
*108 FILLER_0_0_113
*109 FILLER_0_0_125
*110 FILLER_0_0_137
*111 FILLER_0_0_141
*112 FILLER_0_0_15
*113 FILLER_0_0_153
*114 FILLER_0_0_165
*115 FILLER_0_0_169
*116 FILLER_0_0_181
*117 FILLER_0_0_193
*118 FILLER_0_0_197
*119 FILLER_0_0_209
*120 FILLER_0_0_221
*121 FILLER_0_0_225
*122 FILLER_0_0_237
*123 FILLER_0_0_249
*124 FILLER_0_0_253
*125 FILLER_0_0_265
*126 FILLER_0_0_27
*127 FILLER_0_0_277
*128 FILLER_0_0_281
*129 FILLER_0_0_29
*130 FILLER_0_0_293
*131 FILLER_0_0_3
*132 FILLER_0_0_305
*133 FILLER_0_0_309
*134 FILLER_0_0_321
*135 FILLER_0_0_333
*136 FILLER_0_0_41
*137 FILLER_0_0_53
*138 FILLER_0_0_57
*139 FILLER_0_0_69
*140 FILLER_0_0_81
*141 FILLER_0_0_85
*142 FILLER_0_0_97
*143 FILLER_0_10_109
*144 FILLER_0_10_121
*145 FILLER_0_10_133
*146 FILLER_0_10_139
*147 FILLER_0_10_141
*148 FILLER_0_10_15
*149 FILLER_0_10_153
*150 FILLER_0_10_165
*151 FILLER_0_10_177
*152 FILLER_0_10_189
*153 FILLER_0_10_195
*154 FILLER_0_10_197
*155 FILLER_0_10_209
*156 FILLER_0_10_221
*157 FILLER_0_10_233
*158 FILLER_0_10_245
*159 FILLER_0_10_251
*160 FILLER_0_10_253
*161 FILLER_0_10_265
*162 FILLER_0_10_27
*163 FILLER_0_10_277
*164 FILLER_0_10_289
*165 FILLER_0_10_29
*166 FILLER_0_10_3
*167 FILLER_0_10_301
*168 FILLER_0_10_307
*169 FILLER_0_10_309
*170 FILLER_0_10_321
*171 FILLER_0_10_333
*172 FILLER_0_10_41
*173 FILLER_0_10_53
*174 FILLER_0_10_65
*175 FILLER_0_10_77
*176 FILLER_0_10_83
*177 FILLER_0_10_85
*178 FILLER_0_10_97
*179 FILLER_0_11_105
*180 FILLER_0_11_111
*181 FILLER_0_11_113
*182 FILLER_0_11_125
*183 FILLER_0_11_137
*184 FILLER_0_11_149
*185 FILLER_0_11_15
*186 FILLER_0_11_161
*187 FILLER_0_11_167
*188 FILLER_0_11_169
*189 FILLER_0_11_181
*190 FILLER_0_11_193
*191 FILLER_0_11_205
*192 FILLER_0_11_217
*193 FILLER_0_11_223
*194 FILLER_0_11_225
*195 FILLER_0_11_237
*196 FILLER_0_11_249
*197 FILLER_0_11_261
*198 FILLER_0_11_27
*199 FILLER_0_11_273
*200 FILLER_0_11_279
*201 FILLER_0_11_281
*202 FILLER_0_11_293
*203 FILLER_0_11_3
*204 FILLER_0_11_305
*205 FILLER_0_11_317
*206 FILLER_0_11_329
*207 FILLER_0_11_39
*208 FILLER_0_11_51
*209 FILLER_0_11_55
*210 FILLER_0_11_57
*211 FILLER_0_11_69
*212 FILLER_0_11_81
*213 FILLER_0_11_93
*214 FILLER_0_12_109
*215 FILLER_0_12_121
*216 FILLER_0_12_133
*217 FILLER_0_12_139
*218 FILLER_0_12_141
*219 FILLER_0_12_15
*220 FILLER_0_12_153
*221 FILLER_0_12_165
*222 FILLER_0_12_177
*223 FILLER_0_12_189
*224 FILLER_0_12_195
*225 FILLER_0_12_197
*226 FILLER_0_12_209
*227 FILLER_0_12_221
*228 FILLER_0_12_233
*229 FILLER_0_12_245
*230 FILLER_0_12_251
*231 FILLER_0_12_253
*232 FILLER_0_12_265
*233 FILLER_0_12_27
*234 FILLER_0_12_277
*235 FILLER_0_12_289
*236 FILLER_0_12_29
*237 FILLER_0_12_3
*238 FILLER_0_12_301
*239 FILLER_0_12_307
*240 FILLER_0_12_309
*241 FILLER_0_12_321
*242 FILLER_0_12_333
*243 FILLER_0_12_41
*244 FILLER_0_12_53
*245 FILLER_0_12_65
*246 FILLER_0_12_77
*247 FILLER_0_12_83
*248 FILLER_0_12_85
*249 FILLER_0_12_97
*250 FILLER_0_13_105
*251 FILLER_0_13_111
*252 FILLER_0_13_113
*253 FILLER_0_13_125
*254 FILLER_0_13_137
*255 FILLER_0_13_149
*256 FILLER_0_13_15
*257 FILLER_0_13_161
*258 FILLER_0_13_167
*259 FILLER_0_13_169
*260 FILLER_0_13_181
*261 FILLER_0_13_193
*262 FILLER_0_13_205
*263 FILLER_0_13_217
*264 FILLER_0_13_223
*265 FILLER_0_13_225
*266 FILLER_0_13_237
*267 FILLER_0_13_249
*268 FILLER_0_13_261
*269 FILLER_0_13_27
*270 FILLER_0_13_273
*271 FILLER_0_13_279
*272 FILLER_0_13_281
*273 FILLER_0_13_293
*274 FILLER_0_13_3
*275 FILLER_0_13_305
*276 FILLER_0_13_317
*277 FILLER_0_13_329
*278 FILLER_0_13_39
*279 FILLER_0_13_51
*280 FILLER_0_13_55
*281 FILLER_0_13_57
*282 FILLER_0_13_69
*283 FILLER_0_13_81
*284 FILLER_0_13_93
*285 FILLER_0_14_109
*286 FILLER_0_14_121
*287 FILLER_0_14_133
*288 FILLER_0_14_139
*289 FILLER_0_14_141
*290 FILLER_0_14_15
*291 FILLER_0_14_153
*292 FILLER_0_14_165
*293 FILLER_0_14_177
*294 FILLER_0_14_189
*295 FILLER_0_14_195
*296 FILLER_0_14_197
*297 FILLER_0_14_209
*298 FILLER_0_14_221
*299 FILLER_0_14_233
*300 FILLER_0_14_245
*301 FILLER_0_14_251
*302 FILLER_0_14_253
*303 FILLER_0_14_265
*304 FILLER_0_14_27
*305 FILLER_0_14_277
*306 FILLER_0_14_289
*307 FILLER_0_14_29
*308 FILLER_0_14_3
*309 FILLER_0_14_301
*310 FILLER_0_14_307
*311 FILLER_0_14_309
*312 FILLER_0_14_321
*313 FILLER_0_14_333
*314 FILLER_0_14_41
*315 FILLER_0_14_53
*316 FILLER_0_14_65
*317 FILLER_0_14_77
*318 FILLER_0_14_83
*319 FILLER_0_14_85
*320 FILLER_0_14_97
*321 FILLER_0_15_105
*322 FILLER_0_15_111
*323 FILLER_0_15_113
*324 FILLER_0_15_125
*325 FILLER_0_15_137
*326 FILLER_0_15_149
*327 FILLER_0_15_15
*328 FILLER_0_15_161
*329 FILLER_0_15_167
*330 FILLER_0_15_169
*331 FILLER_0_15_181
*332 FILLER_0_15_193
*333 FILLER_0_15_205
*334 FILLER_0_15_217
*335 FILLER_0_15_223
*336 FILLER_0_15_225
*337 FILLER_0_15_237
*338 FILLER_0_15_249
*339 FILLER_0_15_261
*340 FILLER_0_15_27
*341 FILLER_0_15_273
*342 FILLER_0_15_279
*343 FILLER_0_15_281
*344 FILLER_0_15_293
*345 FILLER_0_15_3
*346 FILLER_0_15_305
*347 FILLER_0_15_317
*348 FILLER_0_15_329
*349 FILLER_0_15_39
*350 FILLER_0_15_51
*351 FILLER_0_15_55
*352 FILLER_0_15_57
*353 FILLER_0_15_69
*354 FILLER_0_15_81
*355 FILLER_0_15_93
*356 FILLER_0_16_109
*357 FILLER_0_16_121
*358 FILLER_0_16_133
*359 FILLER_0_16_139
*360 FILLER_0_16_141
*361 FILLER_0_16_15
*362 FILLER_0_16_153
*363 FILLER_0_16_165
*364 FILLER_0_16_177
*365 FILLER_0_16_189
*366 FILLER_0_16_195
*367 FILLER_0_16_197
*368 FILLER_0_16_209
*369 FILLER_0_16_221
*370 FILLER_0_16_233
*371 FILLER_0_16_245
*372 FILLER_0_16_251
*373 FILLER_0_16_253
*374 FILLER_0_16_265
*375 FILLER_0_16_27
*376 FILLER_0_16_277
*377 FILLER_0_16_289
*378 FILLER_0_16_29
*379 FILLER_0_16_3
*380 FILLER_0_16_301
*381 FILLER_0_16_307
*382 FILLER_0_16_309
*383 FILLER_0_16_321
*384 FILLER_0_16_333
*385 FILLER_0_16_41
*386 FILLER_0_16_53
*387 FILLER_0_16_65
*388 FILLER_0_16_77
*389 FILLER_0_16_83
*390 FILLER_0_16_85
*391 FILLER_0_16_97
*392 FILLER_0_17_105
*393 FILLER_0_17_111
*394 FILLER_0_17_113
*395 FILLER_0_17_125
*396 FILLER_0_17_137
*397 FILLER_0_17_149
*398 FILLER_0_17_15
*399 FILLER_0_17_161
*400 FILLER_0_17_167
*401 FILLER_0_17_169
*402 FILLER_0_17_181
*403 FILLER_0_17_193
*404 FILLER_0_17_205
*405 FILLER_0_17_217
*406 FILLER_0_17_223
*407 FILLER_0_17_225
*408 FILLER_0_17_237
*409 FILLER_0_17_249
*410 FILLER_0_17_261
*411 FILLER_0_17_27
*412 FILLER_0_17_273
*413 FILLER_0_17_279
*414 FILLER_0_17_281
*415 FILLER_0_17_293
*416 FILLER_0_17_3
*417 FILLER_0_17_305
*418 FILLER_0_17_317
*419 FILLER_0_17_329
*420 FILLER_0_17_39
*421 FILLER_0_17_51
*422 FILLER_0_17_55
*423 FILLER_0_17_57
*424 FILLER_0_17_69
*425 FILLER_0_17_81
*426 FILLER_0_17_93
*427 FILLER_0_18_109
*428 FILLER_0_18_121
*429 FILLER_0_18_133
*430 FILLER_0_18_139
*431 FILLER_0_18_141
*432 FILLER_0_18_15
*433 FILLER_0_18_153
*434 FILLER_0_18_165
*435 FILLER_0_18_177
*436 FILLER_0_18_189
*437 FILLER_0_18_195
*438 FILLER_0_18_197
*439 FILLER_0_18_209
*440 FILLER_0_18_221
*441 FILLER_0_18_233
*442 FILLER_0_18_245
*443 FILLER_0_18_251
*444 FILLER_0_18_253
*445 FILLER_0_18_265
*446 FILLER_0_18_27
*447 FILLER_0_18_277
*448 FILLER_0_18_289
*449 FILLER_0_18_29
*450 FILLER_0_18_3
*451 FILLER_0_18_301
*452 FILLER_0_18_307
*453 FILLER_0_18_309
*454 FILLER_0_18_321
*455 FILLER_0_18_333
*456 FILLER_0_18_41
*457 FILLER_0_18_53
*458 FILLER_0_18_65
*459 FILLER_0_18_77
*460 FILLER_0_18_83
*461 FILLER_0_18_85
*462 FILLER_0_18_97
*463 FILLER_0_19_105
*464 FILLER_0_19_111
*465 FILLER_0_19_113
*466 FILLER_0_19_125
*467 FILLER_0_19_137
*468 FILLER_0_19_149
*469 FILLER_0_19_15
*470 FILLER_0_19_161
*471 FILLER_0_19_167
*472 FILLER_0_19_169
*473 FILLER_0_19_181
*474 FILLER_0_19_193
*475 FILLER_0_19_205
*476 FILLER_0_19_217
*477 FILLER_0_19_223
*478 FILLER_0_19_225
*479 FILLER_0_19_237
*480 FILLER_0_19_249
*481 FILLER_0_19_261
*482 FILLER_0_19_27
*483 FILLER_0_19_273
*484 FILLER_0_19_279
*485 FILLER_0_19_281
*486 FILLER_0_19_293
*487 FILLER_0_19_3
*488 FILLER_0_19_305
*489 FILLER_0_19_317
*490 FILLER_0_19_329
*491 FILLER_0_19_39
*492 FILLER_0_19_51
*493 FILLER_0_19_55
*494 FILLER_0_19_57
*495 FILLER_0_19_69
*496 FILLER_0_19_81
*497 FILLER_0_19_93
*498 FILLER_0_1_105
*499 FILLER_0_1_111
*500 FILLER_0_1_113
*501 FILLER_0_1_125
*502 FILLER_0_1_137
*503 FILLER_0_1_149
*504 FILLER_0_1_15
*505 FILLER_0_1_161
*506 FILLER_0_1_167
*507 FILLER_0_1_169
*508 FILLER_0_1_181
*509 FILLER_0_1_193
*510 FILLER_0_1_205
*511 FILLER_0_1_217
*512 FILLER_0_1_223
*513 FILLER_0_1_225
*514 FILLER_0_1_237
*515 FILLER_0_1_249
*516 FILLER_0_1_261
*517 FILLER_0_1_27
*518 FILLER_0_1_273
*519 FILLER_0_1_279
*520 FILLER_0_1_281
*521 FILLER_0_1_293
*522 FILLER_0_1_3
*523 FILLER_0_1_305
*524 FILLER_0_1_317
*525 FILLER_0_1_329
*526 FILLER_0_1_39
*527 FILLER_0_1_51
*528 FILLER_0_1_55
*529 FILLER_0_1_57
*530 FILLER_0_1_69
*531 FILLER_0_1_81
*532 FILLER_0_1_93
*533 FILLER_0_20_109
*534 FILLER_0_20_121
*535 FILLER_0_20_133
*536 FILLER_0_20_139
*537 FILLER_0_20_141
*538 FILLER_0_20_15
*539 FILLER_0_20_153
*540 FILLER_0_20_165
*541 FILLER_0_20_177
*542 FILLER_0_20_189
*543 FILLER_0_20_195
*544 FILLER_0_20_197
*545 FILLER_0_20_209
*546 FILLER_0_20_221
*547 FILLER_0_20_233
*548 FILLER_0_20_245
*549 FILLER_0_20_251
*550 FILLER_0_20_253
*551 FILLER_0_20_265
*552 FILLER_0_20_27
*553 FILLER_0_20_277
*554 FILLER_0_20_289
*555 FILLER_0_20_29
*556 FILLER_0_20_3
*557 FILLER_0_20_301
*558 FILLER_0_20_307
*559 FILLER_0_20_309
*560 FILLER_0_20_321
*561 FILLER_0_20_333
*562 FILLER_0_20_41
*563 FILLER_0_20_53
*564 FILLER_0_20_65
*565 FILLER_0_20_77
*566 FILLER_0_20_83
*567 FILLER_0_20_85
*568 FILLER_0_20_97
*569 FILLER_0_21_105
*570 FILLER_0_21_111
*571 FILLER_0_21_113
*572 FILLER_0_21_125
*573 FILLER_0_21_137
*574 FILLER_0_21_149
*575 FILLER_0_21_15
*576 FILLER_0_21_161
*577 FILLER_0_21_167
*578 FILLER_0_21_169
*579 FILLER_0_21_181
*580 FILLER_0_21_193
*581 FILLER_0_21_205
*582 FILLER_0_21_217
*583 FILLER_0_21_223
*584 FILLER_0_21_225
*585 FILLER_0_21_237
*586 FILLER_0_21_249
*587 FILLER_0_21_261
*588 FILLER_0_21_27
*589 FILLER_0_21_273
*590 FILLER_0_21_279
*591 FILLER_0_21_281
*592 FILLER_0_21_293
*593 FILLER_0_21_3
*594 FILLER_0_21_305
*595 FILLER_0_21_317
*596 FILLER_0_21_329
*597 FILLER_0_21_39
*598 FILLER_0_21_51
*599 FILLER_0_21_55
*600 FILLER_0_21_57
*601 FILLER_0_21_69
*602 FILLER_0_21_81
*603 FILLER_0_21_93
*604 FILLER_0_22_109
*605 FILLER_0_22_121
*606 FILLER_0_22_133
*607 FILLER_0_22_139
*608 FILLER_0_22_141
*609 FILLER_0_22_15
*610 FILLER_0_22_153
*611 FILLER_0_22_165
*612 FILLER_0_22_177
*613 FILLER_0_22_189
*614 FILLER_0_22_195
*615 FILLER_0_22_197
*616 FILLER_0_22_209
*617 FILLER_0_22_221
*618 FILLER_0_22_233
*619 FILLER_0_22_245
*620 FILLER_0_22_251
*621 FILLER_0_22_253
*622 FILLER_0_22_265
*623 FILLER_0_22_27
*624 FILLER_0_22_277
*625 FILLER_0_22_289
*626 FILLER_0_22_29
*627 FILLER_0_22_3
*628 FILLER_0_22_301
*629 FILLER_0_22_307
*630 FILLER_0_22_309
*631 FILLER_0_22_321
*632 FILLER_0_22_333
*633 FILLER_0_22_41
*634 FILLER_0_22_53
*635 FILLER_0_22_65
*636 FILLER_0_22_77
*637 FILLER_0_22_83
*638 FILLER_0_22_85
*639 FILLER_0_22_97
*640 FILLER_0_23_105
*641 FILLER_0_23_111
*642 FILLER_0_23_113
*643 FILLER_0_23_125
*644 FILLER_0_23_137
*645 FILLER_0_23_149
*646 FILLER_0_23_15
*647 FILLER_0_23_161
*648 FILLER_0_23_167
*649 FILLER_0_23_169
*650 FILLER_0_23_181
*651 FILLER_0_23_193
*652 FILLER_0_23_205
*653 FILLER_0_23_217
*654 FILLER_0_23_223
*655 FILLER_0_23_225
*656 FILLER_0_23_237
*657 FILLER_0_23_249
*658 FILLER_0_23_261
*659 FILLER_0_23_27
*660 FILLER_0_23_273
*661 FILLER_0_23_279
*662 FILLER_0_23_281
*663 FILLER_0_23_293
*664 FILLER_0_23_3
*665 FILLER_0_23_305
*666 FILLER_0_23_317
*667 FILLER_0_23_329
*668 FILLER_0_23_39
*669 FILLER_0_23_51
*670 FILLER_0_23_55
*671 FILLER_0_23_57
*672 FILLER_0_23_69
*673 FILLER_0_23_81
*674 FILLER_0_23_93
*675 FILLER_0_24_109
*676 FILLER_0_24_121
*677 FILLER_0_24_133
*678 FILLER_0_24_139
*679 FILLER_0_24_141
*680 FILLER_0_24_15
*681 FILLER_0_24_153
*682 FILLER_0_24_165
*683 FILLER_0_24_177
*684 FILLER_0_24_189
*685 FILLER_0_24_195
*686 FILLER_0_24_197
*687 FILLER_0_24_209
*688 FILLER_0_24_221
*689 FILLER_0_24_233
*690 FILLER_0_24_245
*691 FILLER_0_24_251
*692 FILLER_0_24_253
*693 FILLER_0_24_265
*694 FILLER_0_24_27
*695 FILLER_0_24_277
*696 FILLER_0_24_289
*697 FILLER_0_24_29
*698 FILLER_0_24_3
*699 FILLER_0_24_301
*700 FILLER_0_24_307
*701 FILLER_0_24_309
*702 FILLER_0_24_321
*703 FILLER_0_24_333
*704 FILLER_0_24_41
*705 FILLER_0_24_53
*706 FILLER_0_24_65
*707 FILLER_0_24_77
*708 FILLER_0_24_83
*709 FILLER_0_24_85
*710 FILLER_0_24_97
*711 FILLER_0_25_105
*712 FILLER_0_25_111
*713 FILLER_0_25_113
*714 FILLER_0_25_125
*715 FILLER_0_25_137
*716 FILLER_0_25_149
*717 FILLER_0_25_15
*718 FILLER_0_25_161
*719 FILLER_0_25_167
*720 FILLER_0_25_169
*721 FILLER_0_25_181
*722 FILLER_0_25_193
*723 FILLER_0_25_205
*724 FILLER_0_25_217
*725 FILLER_0_25_223
*726 FILLER_0_25_225
*727 FILLER_0_25_237
*728 FILLER_0_25_249
*729 FILLER_0_25_261
*730 FILLER_0_25_27
*731 FILLER_0_25_273
*732 FILLER_0_25_279
*733 FILLER_0_25_281
*734 FILLER_0_25_293
*735 FILLER_0_25_3
*736 FILLER_0_25_305
*737 FILLER_0_25_317
*738 FILLER_0_25_329
*739 FILLER_0_25_39
*740 FILLER_0_25_51
*741 FILLER_0_25_55
*742 FILLER_0_25_57
*743 FILLER_0_25_69
*744 FILLER_0_25_81
*745 FILLER_0_25_93
*746 FILLER_0_26_109
*747 FILLER_0_26_121
*748 FILLER_0_26_133
*749 FILLER_0_26_139
*750 FILLER_0_26_141
*751 FILLER_0_26_15
*752 FILLER_0_26_153
*753 FILLER_0_26_165
*754 FILLER_0_26_177
*755 FILLER_0_26_189
*756 FILLER_0_26_195
*757 FILLER_0_26_197
*758 FILLER_0_26_209
*759 FILLER_0_26_221
*760 FILLER_0_26_233
*761 FILLER_0_26_245
*762 FILLER_0_26_251
*763 FILLER_0_26_253
*764 FILLER_0_26_265
*765 FILLER_0_26_27
*766 FILLER_0_26_277
*767 FILLER_0_26_289
*768 FILLER_0_26_29
*769 FILLER_0_26_3
*770 FILLER_0_26_301
*771 FILLER_0_26_307
*772 FILLER_0_26_309
*773 FILLER_0_26_321
*774 FILLER_0_26_333
*775 FILLER_0_26_41
*776 FILLER_0_26_53
*777 FILLER_0_26_65
*778 FILLER_0_26_77
*779 FILLER_0_26_83
*780 FILLER_0_26_85
*781 FILLER_0_26_97
*782 FILLER_0_27_105
*783 FILLER_0_27_111
*784 FILLER_0_27_113
*785 FILLER_0_27_125
*786 FILLER_0_27_137
*787 FILLER_0_27_149
*788 FILLER_0_27_15
*789 FILLER_0_27_161
*790 FILLER_0_27_167
*791 FILLER_0_27_169
*792 FILLER_0_27_181
*793 FILLER_0_27_193
*794 FILLER_0_27_205
*795 FILLER_0_27_217
*796 FILLER_0_27_223
*797 FILLER_0_27_225
*798 FILLER_0_27_237
*799 FILLER_0_27_249
*800 FILLER_0_27_261
*801 FILLER_0_27_27
*802 FILLER_0_27_273
*803 FILLER_0_27_279
*804 FILLER_0_27_281
*805 FILLER_0_27_293
*806 FILLER_0_27_3
*807 FILLER_0_27_305
*808 FILLER_0_27_317
*809 FILLER_0_27_329
*810 FILLER_0_27_39
*811 FILLER_0_27_51
*812 FILLER_0_27_55
*813 FILLER_0_27_57
*814 FILLER_0_27_69
*815 FILLER_0_27_81
*816 FILLER_0_27_93
*817 FILLER_0_28_109
*818 FILLER_0_28_121
*819 FILLER_0_28_133
*820 FILLER_0_28_139
*821 FILLER_0_28_141
*822 FILLER_0_28_15
*823 FILLER_0_28_153
*824 FILLER_0_28_165
*825 FILLER_0_28_177
*826 FILLER_0_28_189
*827 FILLER_0_28_195
*828 FILLER_0_28_197
*829 FILLER_0_28_209
*830 FILLER_0_28_221
*831 FILLER_0_28_233
*832 FILLER_0_28_245
*833 FILLER_0_28_251
*834 FILLER_0_28_253
*835 FILLER_0_28_265
*836 FILLER_0_28_27
*837 FILLER_0_28_277
*838 FILLER_0_28_289
*839 FILLER_0_28_29
*840 FILLER_0_28_3
*841 FILLER_0_28_301
*842 FILLER_0_28_307
*843 FILLER_0_28_309
*844 FILLER_0_28_321
*845 FILLER_0_28_333
*846 FILLER_0_28_41
*847 FILLER_0_28_53
*848 FILLER_0_28_65
*849 FILLER_0_28_77
*850 FILLER_0_28_83
*851 FILLER_0_28_85
*852 FILLER_0_28_97
*853 FILLER_0_29_105
*854 FILLER_0_29_111
*855 FILLER_0_29_113
*856 FILLER_0_29_125
*857 FILLER_0_29_137
*858 FILLER_0_29_149
*859 FILLER_0_29_15
*860 FILLER_0_29_161
*861 FILLER_0_29_167
*862 FILLER_0_29_169
*863 FILLER_0_29_181
*864 FILLER_0_29_193
*865 FILLER_0_29_205
*866 FILLER_0_29_217
*867 FILLER_0_29_223
*868 FILLER_0_29_225
*869 FILLER_0_29_237
*870 FILLER_0_29_249
*871 FILLER_0_29_261
*872 FILLER_0_29_27
*873 FILLER_0_29_273
*874 FILLER_0_29_279
*875 FILLER_0_29_281
*876 FILLER_0_29_293
*877 FILLER_0_29_3
*878 FILLER_0_29_305
*879 FILLER_0_29_317
*880 FILLER_0_29_329
*881 FILLER_0_29_39
*882 FILLER_0_29_51
*883 FILLER_0_29_55
*884 FILLER_0_29_57
*885 FILLER_0_29_69
*886 FILLER_0_29_81
*887 FILLER_0_29_93
*888 FILLER_0_2_109
*889 FILLER_0_2_121
*890 FILLER_0_2_133
*891 FILLER_0_2_139
*892 FILLER_0_2_141
*893 FILLER_0_2_15
*894 FILLER_0_2_153
*895 FILLER_0_2_165
*896 FILLER_0_2_177
*897 FILLER_0_2_189
*898 FILLER_0_2_195
*899 FILLER_0_2_197
*900 FILLER_0_2_209
*901 FILLER_0_2_221
*902 FILLER_0_2_233
*903 FILLER_0_2_245
*904 FILLER_0_2_251
*905 FILLER_0_2_253
*906 FILLER_0_2_265
*907 FILLER_0_2_27
*908 FILLER_0_2_277
*909 FILLER_0_2_289
*910 FILLER_0_2_29
*911 FILLER_0_2_3
*912 FILLER_0_2_301
*913 FILLER_0_2_307
*914 FILLER_0_2_309
*915 FILLER_0_2_321
*916 FILLER_0_2_333
*917 FILLER_0_2_41
*918 FILLER_0_2_53
*919 FILLER_0_2_65
*920 FILLER_0_2_77
*921 FILLER_0_2_83
*922 FILLER_0_2_85
*923 FILLER_0_2_97
*924 FILLER_0_30_109
*925 FILLER_0_30_121
*926 FILLER_0_30_133
*927 FILLER_0_30_139
*928 FILLER_0_30_141
*929 FILLER_0_30_15
*930 FILLER_0_30_153
*931 FILLER_0_30_165
*932 FILLER_0_30_177
*933 FILLER_0_30_189
*934 FILLER_0_30_195
*935 FILLER_0_30_197
*936 FILLER_0_30_209
*937 FILLER_0_30_221
*938 FILLER_0_30_233
*939 FILLER_0_30_245
*940 FILLER_0_30_251
*941 FILLER_0_30_253
*942 FILLER_0_30_265
*943 FILLER_0_30_27
*944 FILLER_0_30_277
*945 FILLER_0_30_289
*946 FILLER_0_30_29
*947 FILLER_0_30_3
*948 FILLER_0_30_301
*949 FILLER_0_30_307
*950 FILLER_0_30_309
*951 FILLER_0_30_321
*952 FILLER_0_30_333
*953 FILLER_0_30_41
*954 FILLER_0_30_53
*955 FILLER_0_30_65
*956 FILLER_0_30_77
*957 FILLER_0_30_83
*958 FILLER_0_30_85
*959 FILLER_0_30_97
*960 FILLER_0_31_105
*961 FILLER_0_31_111
*962 FILLER_0_31_113
*963 FILLER_0_31_125
*964 FILLER_0_31_137
*965 FILLER_0_31_149
*966 FILLER_0_31_15
*967 FILLER_0_31_161
*968 FILLER_0_31_167
*969 FILLER_0_31_169
*970 FILLER_0_31_181
*971 FILLER_0_31_193
*972 FILLER_0_31_205
*973 FILLER_0_31_217
*974 FILLER_0_31_223
*975 FILLER_0_31_225
*976 FILLER_0_31_237
*977 FILLER_0_31_249
*978 FILLER_0_31_261
*979 FILLER_0_31_27
*980 FILLER_0_31_273
*981 FILLER_0_31_279
*982 FILLER_0_31_281
*983 FILLER_0_31_293
*984 FILLER_0_31_3
*985 FILLER_0_31_305
*986 FILLER_0_31_317
*987 FILLER_0_31_329
*988 FILLER_0_31_39
*989 FILLER_0_31_51
*990 FILLER_0_31_55
*991 FILLER_0_31_57
*992 FILLER_0_31_69
*993 FILLER_0_31_81
*994 FILLER_0_31_93
*995 FILLER_0_32_109
*996 FILLER_0_32_121
*997 FILLER_0_32_133
*998 FILLER_0_32_139
*999 FILLER_0_32_141
*1000 FILLER_0_32_15
*1001 FILLER_0_32_153
*1002 FILLER_0_32_165
*1003 FILLER_0_32_177
*1004 FILLER_0_32_189
*1005 FILLER_0_32_195
*1006 FILLER_0_32_197
*1007 FILLER_0_32_209
*1008 FILLER_0_32_221
*1009 FILLER_0_32_233
*1010 FILLER_0_32_245
*1011 FILLER_0_32_251
*1012 FILLER_0_32_253
*1013 FILLER_0_32_265
*1014 FILLER_0_32_27
*1015 FILLER_0_32_277
*1016 FILLER_0_32_289
*1017 FILLER_0_32_29
*1018 FILLER_0_32_3
*1019 FILLER_0_32_301
*1020 FILLER_0_32_307
*1021 FILLER_0_32_309
*1022 FILLER_0_32_321
*1023 FILLER_0_32_333
*1024 FILLER_0_32_41
*1025 FILLER_0_32_53
*1026 FILLER_0_32_65
*1027 FILLER_0_32_77
*1028 FILLER_0_32_83
*1029 FILLER_0_32_85
*1030 FILLER_0_32_97
*1031 FILLER_0_33_105
*1032 FILLER_0_33_111
*1033 FILLER_0_33_113
*1034 FILLER_0_33_125
*1035 FILLER_0_33_137
*1036 FILLER_0_33_149
*1037 FILLER_0_33_15
*1038 FILLER_0_33_161
*1039 FILLER_0_33_167
*1040 FILLER_0_33_169
*1041 FILLER_0_33_181
*1042 FILLER_0_33_193
*1043 FILLER_0_33_205
*1044 FILLER_0_33_217
*1045 FILLER_0_33_223
*1046 FILLER_0_33_225
*1047 FILLER_0_33_237
*1048 FILLER_0_33_249
*1049 FILLER_0_33_261
*1050 FILLER_0_33_27
*1051 FILLER_0_33_273
*1052 FILLER_0_33_279
*1053 FILLER_0_33_281
*1054 FILLER_0_33_293
*1055 FILLER_0_33_3
*1056 FILLER_0_33_305
*1057 FILLER_0_33_317
*1058 FILLER_0_33_329
*1059 FILLER_0_33_39
*1060 FILLER_0_33_51
*1061 FILLER_0_33_55
*1062 FILLER_0_33_57
*1063 FILLER_0_33_69
*1064 FILLER_0_33_81
*1065 FILLER_0_33_93
*1066 FILLER_0_34_109
*1067 FILLER_0_34_121
*1068 FILLER_0_34_133
*1069 FILLER_0_34_139
*1070 FILLER_0_34_141
*1071 FILLER_0_34_15
*1072 FILLER_0_34_153
*1073 FILLER_0_34_165
*1074 FILLER_0_34_177
*1075 FILLER_0_34_189
*1076 FILLER_0_34_195
*1077 FILLER_0_34_197
*1078 FILLER_0_34_209
*1079 FILLER_0_34_221
*1080 FILLER_0_34_233
*1081 FILLER_0_34_247
*1082 FILLER_0_34_251
*1083 FILLER_0_34_253
*1084 FILLER_0_34_265
*1085 FILLER_0_34_27
*1086 FILLER_0_34_277
*1087 FILLER_0_34_289
*1088 FILLER_0_34_29
*1089 FILLER_0_34_3
*1090 FILLER_0_34_301
*1091 FILLER_0_34_307
*1092 FILLER_0_34_309
*1093 FILLER_0_34_321
*1094 FILLER_0_34_333
*1095 FILLER_0_34_41
*1096 FILLER_0_34_53
*1097 FILLER_0_34_65
*1098 FILLER_0_34_77
*1099 FILLER_0_34_83
*1100 FILLER_0_34_85
*1101 FILLER_0_34_97
*1102 FILLER_0_35_105
*1103 FILLER_0_35_111
*1104 FILLER_0_35_113
*1105 FILLER_0_35_125
*1106 FILLER_0_35_137
*1107 FILLER_0_35_149
*1108 FILLER_0_35_15
*1109 FILLER_0_35_161
*1110 FILLER_0_35_167
*1111 FILLER_0_35_169
*1112 FILLER_0_35_177
*1113 FILLER_0_35_184
*1114 FILLER_0_35_208
*1115 FILLER_0_35_220
*1116 FILLER_0_35_225
*1117 FILLER_0_35_251
*1118 FILLER_0_35_263
*1119 FILLER_0_35_27
*1120 FILLER_0_35_275
*1121 FILLER_0_35_279
*1122 FILLER_0_35_281
*1123 FILLER_0_35_293
*1124 FILLER_0_35_3
*1125 FILLER_0_35_305
*1126 FILLER_0_35_317
*1127 FILLER_0_35_329
*1128 FILLER_0_35_39
*1129 FILLER_0_35_51
*1130 FILLER_0_35_55
*1131 FILLER_0_35_57
*1132 FILLER_0_35_69
*1133 FILLER_0_35_81
*1134 FILLER_0_35_93
*1135 FILLER_0_36_109
*1136 FILLER_0_36_121
*1137 FILLER_0_36_133
*1138 FILLER_0_36_139
*1139 FILLER_0_36_141
*1140 FILLER_0_36_15
*1141 FILLER_0_36_171
*1142 FILLER_0_36_197
*1143 FILLER_0_36_248
*1144 FILLER_0_36_27
*1145 FILLER_0_36_275
*1146 FILLER_0_36_280
*1147 FILLER_0_36_288
*1148 FILLER_0_36_29
*1149 FILLER_0_36_3
*1150 FILLER_0_36_300
*1151 FILLER_0_36_309
*1152 FILLER_0_36_321
*1153 FILLER_0_36_333
*1154 FILLER_0_36_41
*1155 FILLER_0_36_53
*1156 FILLER_0_36_65
*1157 FILLER_0_36_77
*1158 FILLER_0_36_83
*1159 FILLER_0_36_85
*1160 FILLER_0_36_97
*1161 FILLER_0_37_106
*1162 FILLER_0_37_110
*1163 FILLER_0_37_116
*1164 FILLER_0_37_122
*1165 FILLER_0_37_128
*1166 FILLER_0_37_134
*1167 FILLER_0_37_140
*1168 FILLER_0_37_144
*1169 FILLER_0_37_15
*1170 FILLER_0_37_169
*1171 FILLER_0_37_183
*1172 FILLER_0_37_195
*1173 FILLER_0_37_208
*1174 FILLER_0_37_216
*1175 FILLER_0_37_220
*1176 FILLER_0_37_225
*1177 FILLER_0_37_257
*1178 FILLER_0_37_262
*1179 FILLER_0_37_27
*1180 FILLER_0_37_278
*1181 FILLER_0_37_3
*1182 FILLER_0_37_303
*1183 FILLER_0_37_315
*1184 FILLER_0_37_327
*1185 FILLER_0_37_39
*1186 FILLER_0_37_51
*1187 FILLER_0_37_55
*1188 FILLER_0_37_57
*1189 FILLER_0_37_65
*1190 FILLER_0_37_69
*1191 FILLER_0_37_74
*1192 FILLER_0_37_80
*1193 FILLER_0_37_86
*1194 FILLER_0_37_94
*1195 FILLER_0_37_98
*1196 FILLER_0_38_105
*1197 FILLER_0_38_111
*1198 FILLER_0_38_117
*1199 FILLER_0_38_123
*1200 FILLER_0_38_129
*1201 FILLER_0_38_134
*1202 FILLER_0_38_141
*1203 FILLER_0_38_15
*1204 FILLER_0_38_154
*1205 FILLER_0_38_166
*1206 FILLER_0_38_169
*1207 FILLER_0_38_177
*1208 FILLER_0_38_191
*1209 FILLER_0_38_195
*1210 FILLER_0_38_197
*1211 FILLER_0_38_204
*1212 FILLER_0_38_257
*1213 FILLER_0_38_27
*1214 FILLER_0_38_29
*1215 FILLER_0_38_3
*1216 FILLER_0_38_306
*1217 FILLER_0_38_309
*1218 FILLER_0_38_321
*1219 FILLER_0_38_333
*1220 FILLER_0_38_41
*1221 FILLER_0_38_53
*1222 FILLER_0_38_57
*1223 FILLER_0_38_69
*1224 FILLER_0_38_74
*1225 FILLER_0_38_92
*1226 FILLER_0_3_105
*1227 FILLER_0_3_111
*1228 FILLER_0_3_113
*1229 FILLER_0_3_125
*1230 FILLER_0_3_137
*1231 FILLER_0_3_149
*1232 FILLER_0_3_15
*1233 FILLER_0_3_161
*1234 FILLER_0_3_167
*1235 FILLER_0_3_169
*1236 FILLER_0_3_181
*1237 FILLER_0_3_193
*1238 FILLER_0_3_205
*1239 FILLER_0_3_217
*1240 FILLER_0_3_223
*1241 FILLER_0_3_225
*1242 FILLER_0_3_237
*1243 FILLER_0_3_249
*1244 FILLER_0_3_261
*1245 FILLER_0_3_27
*1246 FILLER_0_3_273
*1247 FILLER_0_3_279
*1248 FILLER_0_3_281
*1249 FILLER_0_3_293
*1250 FILLER_0_3_3
*1251 FILLER_0_3_305
*1252 FILLER_0_3_317
*1253 FILLER_0_3_329
*1254 FILLER_0_3_39
*1255 FILLER_0_3_51
*1256 FILLER_0_3_55
*1257 FILLER_0_3_57
*1258 FILLER_0_3_69
*1259 FILLER_0_3_81
*1260 FILLER_0_3_93
*1261 FILLER_0_4_109
*1262 FILLER_0_4_121
*1263 FILLER_0_4_133
*1264 FILLER_0_4_139
*1265 FILLER_0_4_141
*1266 FILLER_0_4_15
*1267 FILLER_0_4_153
*1268 FILLER_0_4_165
*1269 FILLER_0_4_177
*1270 FILLER_0_4_189
*1271 FILLER_0_4_195
*1272 FILLER_0_4_197
*1273 FILLER_0_4_209
*1274 FILLER_0_4_221
*1275 FILLER_0_4_233
*1276 FILLER_0_4_245
*1277 FILLER_0_4_251
*1278 FILLER_0_4_253
*1279 FILLER_0_4_265
*1280 FILLER_0_4_27
*1281 FILLER_0_4_277
*1282 FILLER_0_4_289
*1283 FILLER_0_4_29
*1284 FILLER_0_4_3
*1285 FILLER_0_4_301
*1286 FILLER_0_4_307
*1287 FILLER_0_4_309
*1288 FILLER_0_4_321
*1289 FILLER_0_4_333
*1290 FILLER_0_4_41
*1291 FILLER_0_4_53
*1292 FILLER_0_4_65
*1293 FILLER_0_4_77
*1294 FILLER_0_4_83
*1295 FILLER_0_4_85
*1296 FILLER_0_4_97
*1297 FILLER_0_5_105
*1298 FILLER_0_5_111
*1299 FILLER_0_5_113
*1300 FILLER_0_5_125
*1301 FILLER_0_5_137
*1302 FILLER_0_5_149
*1303 FILLER_0_5_15
*1304 FILLER_0_5_161
*1305 FILLER_0_5_167
*1306 FILLER_0_5_169
*1307 FILLER_0_5_181
*1308 FILLER_0_5_193
*1309 FILLER_0_5_205
*1310 FILLER_0_5_217
*1311 FILLER_0_5_223
*1312 FILLER_0_5_225
*1313 FILLER_0_5_237
*1314 FILLER_0_5_249
*1315 FILLER_0_5_261
*1316 FILLER_0_5_27
*1317 FILLER_0_5_273
*1318 FILLER_0_5_279
*1319 FILLER_0_5_281
*1320 FILLER_0_5_293
*1321 FILLER_0_5_3
*1322 FILLER_0_5_305
*1323 FILLER_0_5_317
*1324 FILLER_0_5_329
*1325 FILLER_0_5_39
*1326 FILLER_0_5_51
*1327 FILLER_0_5_55
*1328 FILLER_0_5_57
*1329 FILLER_0_5_69
*1330 FILLER_0_5_81
*1331 FILLER_0_5_93
*1332 FILLER_0_6_109
*1333 FILLER_0_6_121
*1334 FILLER_0_6_133
*1335 FILLER_0_6_139
*1336 FILLER_0_6_141
*1337 FILLER_0_6_15
*1338 FILLER_0_6_153
*1339 FILLER_0_6_165
*1340 FILLER_0_6_177
*1341 FILLER_0_6_189
*1342 FILLER_0_6_195
*1343 FILLER_0_6_197
*1344 FILLER_0_6_209
*1345 FILLER_0_6_221
*1346 FILLER_0_6_233
*1347 FILLER_0_6_245
*1348 FILLER_0_6_251
*1349 FILLER_0_6_253
*1350 FILLER_0_6_265
*1351 FILLER_0_6_27
*1352 FILLER_0_6_277
*1353 FILLER_0_6_289
*1354 FILLER_0_6_29
*1355 FILLER_0_6_3
*1356 FILLER_0_6_301
*1357 FILLER_0_6_307
*1358 FILLER_0_6_309
*1359 FILLER_0_6_321
*1360 FILLER_0_6_333
*1361 FILLER_0_6_41
*1362 FILLER_0_6_53
*1363 FILLER_0_6_65
*1364 FILLER_0_6_77
*1365 FILLER_0_6_83
*1366 FILLER_0_6_85
*1367 FILLER_0_6_97
*1368 FILLER_0_7_105
*1369 FILLER_0_7_111
*1370 FILLER_0_7_113
*1371 FILLER_0_7_125
*1372 FILLER_0_7_137
*1373 FILLER_0_7_149
*1374 FILLER_0_7_15
*1375 FILLER_0_7_161
*1376 FILLER_0_7_167
*1377 FILLER_0_7_169
*1378 FILLER_0_7_181
*1379 FILLER_0_7_193
*1380 FILLER_0_7_205
*1381 FILLER_0_7_217
*1382 FILLER_0_7_223
*1383 FILLER_0_7_225
*1384 FILLER_0_7_237
*1385 FILLER_0_7_249
*1386 FILLER_0_7_261
*1387 FILLER_0_7_27
*1388 FILLER_0_7_273
*1389 FILLER_0_7_279
*1390 FILLER_0_7_281
*1391 FILLER_0_7_293
*1392 FILLER_0_7_3
*1393 FILLER_0_7_305
*1394 FILLER_0_7_317
*1395 FILLER_0_7_329
*1396 FILLER_0_7_39
*1397 FILLER_0_7_51
*1398 FILLER_0_7_55
*1399 FILLER_0_7_57
*1400 FILLER_0_7_69
*1401 FILLER_0_7_81
*1402 FILLER_0_7_93
*1403 FILLER_0_8_109
*1404 FILLER_0_8_121
*1405 FILLER_0_8_133
*1406 FILLER_0_8_139
*1407 FILLER_0_8_141
*1408 FILLER_0_8_15
*1409 FILLER_0_8_153
*1410 FILLER_0_8_165
*1411 FILLER_0_8_177
*1412 FILLER_0_8_189
*1413 FILLER_0_8_195
*1414 FILLER_0_8_197
*1415 FILLER_0_8_209
*1416 FILLER_0_8_221
*1417 FILLER_0_8_233
*1418 FILLER_0_8_245
*1419 FILLER_0_8_251
*1420 FILLER_0_8_253
*1421 FILLER_0_8_265
*1422 FILLER_0_8_27
*1423 FILLER_0_8_277
*1424 FILLER_0_8_289
*1425 FILLER_0_8_29
*1426 FILLER_0_8_3
*1427 FILLER_0_8_301
*1428 FILLER_0_8_307
*1429 FILLER_0_8_309
*1430 FILLER_0_8_321
*1431 FILLER_0_8_333
*1432 FILLER_0_8_41
*1433 FILLER_0_8_53
*1434 FILLER_0_8_65
*1435 FILLER_0_8_77
*1436 FILLER_0_8_83
*1437 FILLER_0_8_85
*1438 FILLER_0_8_97
*1439 FILLER_0_9_105
*1440 FILLER_0_9_111
*1441 FILLER_0_9_113
*1442 FILLER_0_9_125
*1443 FILLER_0_9_137
*1444 FILLER_0_9_149
*1445 FILLER_0_9_15
*1446 FILLER_0_9_161
*1447 FILLER_0_9_167
*1448 FILLER_0_9_169
*1449 FILLER_0_9_181
*1450 FILLER_0_9_193
*1451 FILLER_0_9_205
*1452 FILLER_0_9_217
*1453 FILLER_0_9_223
*1454 FILLER_0_9_225
*1455 FILLER_0_9_237
*1456 FILLER_0_9_249
*1457 FILLER_0_9_261
*1458 FILLER_0_9_27
*1459 FILLER_0_9_273
*1460 FILLER_0_9_279
*1461 FILLER_0_9_281
*1462 FILLER_0_9_293
*1463 FILLER_0_9_3
*1464 FILLER_0_9_305
*1465 FILLER_0_9_317
*1466 FILLER_0_9_329
*1467 FILLER_0_9_39
*1468 FILLER_0_9_51
*1469 FILLER_0_9_55
*1470 FILLER_0_9_57
*1471 FILLER_0_9_69
*1472 FILLER_0_9_81
*1473 FILLER_0_9_93
*1474 PHY_EDGE_ROW_0_Left_39
*1475 PHY_EDGE_ROW_0_Right_0
*1476 PHY_EDGE_ROW_10_Left_49
*1477 PHY_EDGE_ROW_10_Right_10
*1478 PHY_EDGE_ROW_11_Left_50
*1479 PHY_EDGE_ROW_11_Right_11
*1480 PHY_EDGE_ROW_12_Left_51
*1481 PHY_EDGE_ROW_12_Right_12
*1482 PHY_EDGE_ROW_13_Left_52
*1483 PHY_EDGE_ROW_13_Right_13
*1484 PHY_EDGE_ROW_14_Left_53
*1485 PHY_EDGE_ROW_14_Right_14
*1486 PHY_EDGE_ROW_15_Left_54
*1487 PHY_EDGE_ROW_15_Right_15
*1488 PHY_EDGE_ROW_16_Left_55
*1489 PHY_EDGE_ROW_16_Right_16
*1490 PHY_EDGE_ROW_17_Left_56
*1491 PHY_EDGE_ROW_17_Right_17
*1492 PHY_EDGE_ROW_18_Left_57
*1493 PHY_EDGE_ROW_18_Right_18
*1494 PHY_EDGE_ROW_19_Left_58
*1495 PHY_EDGE_ROW_19_Right_19
*1496 PHY_EDGE_ROW_1_Left_40
*1497 PHY_EDGE_ROW_1_Right_1
*1498 PHY_EDGE_ROW_20_Left_59
*1499 PHY_EDGE_ROW_20_Right_20
*1500 PHY_EDGE_ROW_21_Left_60
*1501 PHY_EDGE_ROW_21_Right_21
*1502 PHY_EDGE_ROW_22_Left_61
*1503 PHY_EDGE_ROW_22_Right_22
*1504 PHY_EDGE_ROW_23_Left_62
*1505 PHY_EDGE_ROW_23_Right_23
*1506 PHY_EDGE_ROW_24_Left_63
*1507 PHY_EDGE_ROW_24_Right_24
*1508 PHY_EDGE_ROW_25_Left_64
*1509 PHY_EDGE_ROW_25_Right_25
*1510 PHY_EDGE_ROW_26_Left_65
*1511 PHY_EDGE_ROW_26_Right_26
*1512 PHY_EDGE_ROW_27_Left_66
*1513 PHY_EDGE_ROW_27_Right_27
*1514 PHY_EDGE_ROW_28_Left_67
*1515 PHY_EDGE_ROW_28_Right_28
*1516 PHY_EDGE_ROW_29_Left_68
*1517 PHY_EDGE_ROW_29_Right_29
*1518 PHY_EDGE_ROW_2_Left_41
*1519 PHY_EDGE_ROW_2_Right_2
*1520 PHY_EDGE_ROW_30_Left_69
*1521 PHY_EDGE_ROW_30_Right_30
*1522 PHY_EDGE_ROW_31_Left_70
*1523 PHY_EDGE_ROW_31_Right_31
*1524 PHY_EDGE_ROW_32_Left_71
*1525 PHY_EDGE_ROW_32_Right_32
*1526 PHY_EDGE_ROW_33_Left_72
*1527 PHY_EDGE_ROW_33_Right_33
*1528 PHY_EDGE_ROW_34_Left_73
*1529 PHY_EDGE_ROW_34_Right_34
*1530 PHY_EDGE_ROW_35_Left_74
*1531 PHY_EDGE_ROW_35_Right_35
*1532 PHY_EDGE_ROW_36_Left_75
*1533 PHY_EDGE_ROW_36_Right_36
*1534 PHY_EDGE_ROW_37_Left_76
*1535 PHY_EDGE_ROW_37_Right_37
*1536 PHY_EDGE_ROW_38_Left_77
*1537 PHY_EDGE_ROW_38_Right_38
*1538 PHY_EDGE_ROW_3_Left_42
*1539 PHY_EDGE_ROW_3_Right_3
*1540 PHY_EDGE_ROW_4_Left_43
*1541 PHY_EDGE_ROW_4_Right_4
*1542 PHY_EDGE_ROW_5_Left_44
*1543 PHY_EDGE_ROW_5_Right_5
*1544 PHY_EDGE_ROW_6_Left_45
*1545 PHY_EDGE_ROW_6_Right_6
*1546 PHY_EDGE_ROW_7_Left_46
*1547 PHY_EDGE_ROW_7_Right_7
*1548 PHY_EDGE_ROW_8_Left_47
*1549 PHY_EDGE_ROW_8_Right_8
*1550 PHY_EDGE_ROW_9_Left_48
*1551 PHY_EDGE_ROW_9_Right_9
*1552 TAP_TAPCELL_ROW_0_78
*1553 TAP_TAPCELL_ROW_0_79
*1554 TAP_TAPCELL_ROW_0_80
*1555 TAP_TAPCELL_ROW_0_81
*1556 TAP_TAPCELL_ROW_0_82
*1557 TAP_TAPCELL_ROW_0_83
*1558 TAP_TAPCELL_ROW_0_84
*1559 TAP_TAPCELL_ROW_0_85
*1560 TAP_TAPCELL_ROW_0_86
*1561 TAP_TAPCELL_ROW_0_87
*1562 TAP_TAPCELL_ROW_0_88
*1563 TAP_TAPCELL_ROW_10_138
*1564 TAP_TAPCELL_ROW_10_139
*1565 TAP_TAPCELL_ROW_10_140
*1566 TAP_TAPCELL_ROW_10_141
*1567 TAP_TAPCELL_ROW_10_142
*1568 TAP_TAPCELL_ROW_10_143
*1569 TAP_TAPCELL_ROW_11_144
*1570 TAP_TAPCELL_ROW_11_145
*1571 TAP_TAPCELL_ROW_11_146
*1572 TAP_TAPCELL_ROW_11_147
*1573 TAP_TAPCELL_ROW_11_148
*1574 TAP_TAPCELL_ROW_12_149
*1575 TAP_TAPCELL_ROW_12_150
*1576 TAP_TAPCELL_ROW_12_151
*1577 TAP_TAPCELL_ROW_12_152
*1578 TAP_TAPCELL_ROW_12_153
*1579 TAP_TAPCELL_ROW_12_154
*1580 TAP_TAPCELL_ROW_13_155
*1581 TAP_TAPCELL_ROW_13_156
*1582 TAP_TAPCELL_ROW_13_157
*1583 TAP_TAPCELL_ROW_13_158
*1584 TAP_TAPCELL_ROW_13_159
*1585 TAP_TAPCELL_ROW_14_160
*1586 TAP_TAPCELL_ROW_14_161
*1587 TAP_TAPCELL_ROW_14_162
*1588 TAP_TAPCELL_ROW_14_163
*1589 TAP_TAPCELL_ROW_14_164
*1590 TAP_TAPCELL_ROW_14_165
*1591 TAP_TAPCELL_ROW_15_166
*1592 TAP_TAPCELL_ROW_15_167
*1593 TAP_TAPCELL_ROW_15_168
*1594 TAP_TAPCELL_ROW_15_169
*1595 TAP_TAPCELL_ROW_15_170
*1596 TAP_TAPCELL_ROW_16_171
*1597 TAP_TAPCELL_ROW_16_172
*1598 TAP_TAPCELL_ROW_16_173
*1599 TAP_TAPCELL_ROW_16_174
*1600 TAP_TAPCELL_ROW_16_175
*1601 TAP_TAPCELL_ROW_16_176
*1602 TAP_TAPCELL_ROW_17_177
*1603 TAP_TAPCELL_ROW_17_178
*1604 TAP_TAPCELL_ROW_17_179
*1605 TAP_TAPCELL_ROW_17_180
*1606 TAP_TAPCELL_ROW_17_181
*1607 TAP_TAPCELL_ROW_18_182
*1608 TAP_TAPCELL_ROW_18_183
*1609 TAP_TAPCELL_ROW_18_184
*1610 TAP_TAPCELL_ROW_18_185
*1611 TAP_TAPCELL_ROW_18_186
*1612 TAP_TAPCELL_ROW_18_187
*1613 TAP_TAPCELL_ROW_19_188
*1614 TAP_TAPCELL_ROW_19_189
*1615 TAP_TAPCELL_ROW_19_190
*1616 TAP_TAPCELL_ROW_19_191
*1617 TAP_TAPCELL_ROW_19_192
*1618 TAP_TAPCELL_ROW_1_89
*1619 TAP_TAPCELL_ROW_1_90
*1620 TAP_TAPCELL_ROW_1_91
*1621 TAP_TAPCELL_ROW_1_92
*1622 TAP_TAPCELL_ROW_1_93
*1623 TAP_TAPCELL_ROW_20_193
*1624 TAP_TAPCELL_ROW_20_194
*1625 TAP_TAPCELL_ROW_20_195
*1626 TAP_TAPCELL_ROW_20_196
*1627 TAP_TAPCELL_ROW_20_197
*1628 TAP_TAPCELL_ROW_20_198
*1629 TAP_TAPCELL_ROW_21_199
*1630 TAP_TAPCELL_ROW_21_200
*1631 TAP_TAPCELL_ROW_21_201
*1632 TAP_TAPCELL_ROW_21_202
*1633 TAP_TAPCELL_ROW_21_203
*1634 TAP_TAPCELL_ROW_22_204
*1635 TAP_TAPCELL_ROW_22_205
*1636 TAP_TAPCELL_ROW_22_206
*1637 TAP_TAPCELL_ROW_22_207
*1638 TAP_TAPCELL_ROW_22_208
*1639 TAP_TAPCELL_ROW_22_209
*1640 TAP_TAPCELL_ROW_23_210
*1641 TAP_TAPCELL_ROW_23_211
*1642 TAP_TAPCELL_ROW_23_212
*1643 TAP_TAPCELL_ROW_23_213
*1644 TAP_TAPCELL_ROW_23_214
*1645 TAP_TAPCELL_ROW_24_215
*1646 TAP_TAPCELL_ROW_24_216
*1647 TAP_TAPCELL_ROW_24_217
*1648 TAP_TAPCELL_ROW_24_218
*1649 TAP_TAPCELL_ROW_24_219
*1650 TAP_TAPCELL_ROW_24_220
*1651 TAP_TAPCELL_ROW_25_221
*1652 TAP_TAPCELL_ROW_25_222
*1653 TAP_TAPCELL_ROW_25_223
*1654 TAP_TAPCELL_ROW_25_224
*1655 TAP_TAPCELL_ROW_25_225
*1656 TAP_TAPCELL_ROW_26_226
*1657 TAP_TAPCELL_ROW_26_227
*1658 TAP_TAPCELL_ROW_26_228
*1659 TAP_TAPCELL_ROW_26_229
*1660 TAP_TAPCELL_ROW_26_230
*1661 TAP_TAPCELL_ROW_26_231
*1662 TAP_TAPCELL_ROW_27_232
*1663 TAP_TAPCELL_ROW_27_233
*1664 TAP_TAPCELL_ROW_27_234
*1665 TAP_TAPCELL_ROW_27_235
*1666 TAP_TAPCELL_ROW_27_236
*1667 TAP_TAPCELL_ROW_28_237
*1668 TAP_TAPCELL_ROW_28_238
*1669 TAP_TAPCELL_ROW_28_239
*1670 TAP_TAPCELL_ROW_28_240
*1671 TAP_TAPCELL_ROW_28_241
*1672 TAP_TAPCELL_ROW_28_242
*1673 TAP_TAPCELL_ROW_29_243
*1674 TAP_TAPCELL_ROW_29_244
*1675 TAP_TAPCELL_ROW_29_245
*1676 TAP_TAPCELL_ROW_29_246
*1677 TAP_TAPCELL_ROW_29_247
*1678 TAP_TAPCELL_ROW_2_94
*1679 TAP_TAPCELL_ROW_2_95
*1680 TAP_TAPCELL_ROW_2_96
*1681 TAP_TAPCELL_ROW_2_97
*1682 TAP_TAPCELL_ROW_2_98
*1683 TAP_TAPCELL_ROW_2_99
*1684 TAP_TAPCELL_ROW_30_248
*1685 TAP_TAPCELL_ROW_30_249
*1686 TAP_TAPCELL_ROW_30_250
*1687 TAP_TAPCELL_ROW_30_251
*1688 TAP_TAPCELL_ROW_30_252
*1689 TAP_TAPCELL_ROW_30_253
*1690 TAP_TAPCELL_ROW_31_254
*1691 TAP_TAPCELL_ROW_31_255
*1692 TAP_TAPCELL_ROW_31_256
*1693 TAP_TAPCELL_ROW_31_257
*1694 TAP_TAPCELL_ROW_31_258
*1695 TAP_TAPCELL_ROW_32_259
*1696 TAP_TAPCELL_ROW_32_260
*1697 TAP_TAPCELL_ROW_32_261
*1698 TAP_TAPCELL_ROW_32_262
*1699 TAP_TAPCELL_ROW_32_263
*1700 TAP_TAPCELL_ROW_32_264
*1701 TAP_TAPCELL_ROW_33_265
*1702 TAP_TAPCELL_ROW_33_266
*1703 TAP_TAPCELL_ROW_33_267
*1704 TAP_TAPCELL_ROW_33_268
*1705 TAP_TAPCELL_ROW_33_269
*1706 TAP_TAPCELL_ROW_34_270
*1707 TAP_TAPCELL_ROW_34_271
*1708 TAP_TAPCELL_ROW_34_272
*1709 TAP_TAPCELL_ROW_34_273
*1710 TAP_TAPCELL_ROW_34_274
*1711 TAP_TAPCELL_ROW_34_275
*1712 TAP_TAPCELL_ROW_35_276
*1713 TAP_TAPCELL_ROW_35_277
*1714 TAP_TAPCELL_ROW_35_278
*1715 TAP_TAPCELL_ROW_35_279
*1716 TAP_TAPCELL_ROW_35_280
*1717 TAP_TAPCELL_ROW_36_281
*1718 TAP_TAPCELL_ROW_36_282
*1719 TAP_TAPCELL_ROW_36_283
*1720 TAP_TAPCELL_ROW_36_284
*1721 TAP_TAPCELL_ROW_36_285
*1722 TAP_TAPCELL_ROW_36_286
*1723 TAP_TAPCELL_ROW_37_287
*1724 TAP_TAPCELL_ROW_37_288
*1725 TAP_TAPCELL_ROW_37_289
*1726 TAP_TAPCELL_ROW_37_290
*1727 TAP_TAPCELL_ROW_37_291
*1728 TAP_TAPCELL_ROW_38_292
*1729 TAP_TAPCELL_ROW_38_293
*1730 TAP_TAPCELL_ROW_38_294
*1731 TAP_TAPCELL_ROW_38_295
*1732 TAP_TAPCELL_ROW_38_296
*1733 TAP_TAPCELL_ROW_38_297
*1734 TAP_TAPCELL_ROW_38_298
*1735 TAP_TAPCELL_ROW_38_299
*1736 TAP_TAPCELL_ROW_38_300
*1737 TAP_TAPCELL_ROW_38_301
*1738 TAP_TAPCELL_ROW_38_302
*1739 TAP_TAPCELL_ROW_3_100
*1740 TAP_TAPCELL_ROW_3_101
*1741 TAP_TAPCELL_ROW_3_102
*1742 TAP_TAPCELL_ROW_3_103
*1743 TAP_TAPCELL_ROW_3_104
*1744 TAP_TAPCELL_ROW_4_105
*1745 TAP_TAPCELL_ROW_4_106
*1746 TAP_TAPCELL_ROW_4_107
*1747 TAP_TAPCELL_ROW_4_108
*1748 TAP_TAPCELL_ROW_4_109
*1749 TAP_TAPCELL_ROW_4_110
*1750 TAP_TAPCELL_ROW_5_111
*1751 TAP_TAPCELL_ROW_5_112
*1752 TAP_TAPCELL_ROW_5_113
*1753 TAP_TAPCELL_ROW_5_114
*1754 TAP_TAPCELL_ROW_5_115
*1755 TAP_TAPCELL_ROW_6_116
*1756 TAP_TAPCELL_ROW_6_117
*1757 TAP_TAPCELL_ROW_6_118
*1758 TAP_TAPCELL_ROW_6_119
*1759 TAP_TAPCELL_ROW_6_120
*1760 TAP_TAPCELL_ROW_6_121
*1761 TAP_TAPCELL_ROW_7_122
*1762 TAP_TAPCELL_ROW_7_123
*1763 TAP_TAPCELL_ROW_7_124
*1764 TAP_TAPCELL_ROW_7_125
*1765 TAP_TAPCELL_ROW_7_126
*1766 TAP_TAPCELL_ROW_8_127
*1767 TAP_TAPCELL_ROW_8_128
*1768 TAP_TAPCELL_ROW_8_129
*1769 TAP_TAPCELL_ROW_8_130
*1770 TAP_TAPCELL_ROW_8_131
*1771 TAP_TAPCELL_ROW_8_132
*1772 TAP_TAPCELL_ROW_9_133
*1773 TAP_TAPCELL_ROW_9_134
*1774 TAP_TAPCELL_ROW_9_135
*1775 TAP_TAPCELL_ROW_9_136
*1776 TAP_TAPCELL_ROW_9_137
*1777 _29_
*1778 _30_
*1779 _31_
*1780 _32_
*1781 _33_
*1782 _34_
*1783 _35_
*1784 _36_
*1785 _37_
*1786 _38_
*1787 _39_
*1788 _40_
*1789 _41_
*1790 _42_
*1791 _43_
*1792 _44_
*1793 _45_
*1794 _46_
*1795 _47_
*1796 _48_
*1797 _49_
*1798 _50_
*1799 _51_
*1800 _52_
*1801 _53_
*1802 _54_
*1803 _55_
*1804 _56_
*1805 _57_
*1806 _58_
*1807 _59_
*1808 _60_
*1809 _61_
*1810 _62_
*1811 _63_
*1812 _64_
*1813 _65_
*1814 _66_
*1815 _66__17
*1816 _67_
*1817 _67__18
*1818 _68_
*1819 _68__19
*1820 _69_
*1821 _69__20
*1822 _70_
*1823 _70__21
*1824 _71_
*1825 _71__22
*1826 _72_
*1827 _72__23
*1828 _73_
*1829 _73__24
*1830 _74_
*1831 _74__25
*1832 _75_
*1833 _75__26
*1834 _76_
*1835 _76__27
*1836 _77_
*1837 _77__28
*1838 _78_
*1839 _78__29
*1840 _79_
*1841 _79__30
*1842 _80_
*1843 _80__31
*1844 _81_
*1845 _81__32
*1846 input1
*1847 input10
*1848 input11
*1849 input12
*1850 input13
*1851 input14
*1852 input15
*1853 input16
*1854 input2
*1855 input3
*1856 input4
*1857 input5
*1858 input6
*1859 input7
*1860 input8
*1861 input9

*PORTS
clk I
ena I
rst_n I
ui_in[0] I
ui_in[1] I
ui_in[2] I
ui_in[3] I
ui_in[4] I
ui_in[5] I
ui_in[6] I
ui_in[7] I
uio_in[0] I
uio_in[1] I
uio_in[2] I
uio_in[3] I
uio_in[4] I
uio_in[5] I
uio_in[6] I
uio_in[7] I
uio_oe[0] O
uio_oe[1] O
uio_oe[2] O
uio_oe[3] O
uio_oe[4] O
uio_oe[5] O
uio_oe[6] O
uio_oe[7] O
uio_out[0] O
uio_out[1] O
uio_out[2] O
uio_out[3] O
uio_out[4] O
uio_out[5] O
uio_out[6] O
uio_out[7] O
uo_out[0] O
uo_out[1] O
uo_out[2] O
uo_out[3] O
uo_out[4] O
uo_out[5] O
uo_out[6] O
uo_out[7] O

*D_NET *6 0.00134781
*CONN
*P ui_in[0] I
*I *1846:A I *D sky130_fd_sc_hd__buf_1
*CAP
1 ui_in[0] 0.000571613
2 *1846:A 0
3 *6:15 0.000571613
4 *6:15 *7:15 0.000204585
5 *6:15 *8:19 0
*RES
1 ui_in[0] *6:15 34.9957 
2 *6:15 *1846:A 23 
*END

*D_NET *7 0.00128318
*CONN
*P ui_in[1] I
*I *1854:A I *D sky130_fd_sc_hd__clkbuf_2
*CAP
1 ui_in[1] 0.000528069
2 *1854:A 0
3 *7:15 0.000528069
4 *7:15 *8:19 2.24522e-05
5 *6:15 *7:15 0.000204585
*RES
1 ui_in[1] *7:15 35.4872 
2 *7:15 *1854:A 23 
*END

*D_NET *8 0.0024799
*CONN
*P ui_in[2] I
*I *1855:A I *D sky130_fd_sc_hd__buf_1
*CAP
1 ui_in[2] 0.000818026
2 *1855:A 0
3 *8:19 0.000818026
4 *8:19 *9:17 5.81653e-05
5 *8:19 *75:8 2.65879e-05
6 *8:19 *86:10 0.00058669
7 *8:19 *97:20 0.000114725
8 *8:19 *103:8 3.52294e-05
9 *6:15 *8:19 0
10 *7:15 *8:19 2.24522e-05
*RES
1 ui_in[2] *8:19 42.9018 
2 *8:19 *1855:A 23 
*END

*D_NET *9 0.00160946
*CONN
*P ui_in[3] I
*I *1856:A I *D sky130_fd_sc_hd__buf_1
*CAP
1 ui_in[3] 0.000753666
2 *1856:A 0
3 *9:17 0.000753666
4 *9:17 *10:15 4.02518e-05
5 *9:17 *11:17 0
6 *9:17 *12:15 0
7 *9:17 *39:8 0
8 *9:17 *101:10 3.7122e-06
9 *8:19 *9:17 5.81653e-05
*RES
1 ui_in[3] *9:17 35.0956 
2 *9:17 *1856:A 23 
*END

*D_NET *10 0.00158378
*CONN
*P ui_in[4] I
*I *1857:A I *D sky130_fd_sc_hd__clkbuf_1
*CAP
1 ui_in[4] 0.000637828
2 *1857:A 0
3 *10:15 0.000637828
4 *10:15 uo_out[0] 0
5 *10:15 *11:17 9.4804e-05
6 *10:15 *102:8 0.000173065
7 *9:17 *10:15 4.02518e-05
*RES
1 ui_in[4] *10:15 37.1172 
2 *10:15 *1857:A 23 
*END

*D_NET *11 0.00208521
*CONN
*P ui_in[5] I
*I *1858:A I *D sky130_fd_sc_hd__buf_1
*CAP
1 ui_in[5] 0.000657941
2 *1858:A 0
3 *11:17 0.000657941
4 *11:17 *1778:B 6.07611e-06
5 *11:17 *12:15 6.10087e-05
6 *11:17 *76:10 3.31127e-05
7 *11:17 *86:10 0.000235159
8 *11:17 *97:20 0.000339166
9 *11:17 *102:8 0
10 *9:17 *11:17 0
11 *10:15 *11:17 9.4804e-05
*RES
1 ui_in[5] *11:17 39.937 
2 *11:17 *1858:A 23 
*END

*D_NET *12 0.00121566
*CONN
*P ui_in[6] I
*I *1859:A I *D sky130_fd_sc_hd__clkbuf_1
*CAP
1 ui_in[6] 0.000490938
2 *1859:A 0
3 *12:15 0.000490938
4 *12:15 *1778:A 0
5 *12:15 *13:15 1.74644e-05
6 *12:15 *15:19 0
7 *12:15 *86:14 0
8 *12:15 *101:10 4.2361e-05
9 *12:15 *104:8 0.000112954
10 *9:17 *12:15 0
11 *11:17 *12:15 6.10087e-05
*RES
1 ui_in[6] *12:15 35.0417 
2 *12:15 *1859:A 23 
*END

*D_NET *13 0.00123143
*CONN
*P ui_in[7] I
*I *1860:A I *D sky130_fd_sc_hd__buf_1
*CAP
1 ui_in[7] 0.000536428
2 *1860:A 0
3 *13:15 0.000536428
4 *13:15 *14:15 1.74644e-05
5 *13:15 *104:8 0.000123643
6 *12:15 *13:15 1.74644e-05
*RES
1 ui_in[7] *13:15 37.437 
2 *13:15 *1860:A 23 
*END

*D_NET *14 0.00136924
*CONN
*P uio_in[0] I
*I *1861:A I *D sky130_fd_sc_hd__buf_1
*CAP
1 uio_in[0] 0.000616472
2 *1861:A 0
3 *14:15 0.000616472
4 *14:15 *15:19 2.24522e-05
5 *14:15 *16:19 0
6 *14:15 *55:23 9.63815e-05
7 *13:15 *14:15 1.74644e-05
*RES
1 uio_in[0] *14:15 37.5228 
2 *14:15 *1861:A 23 
*END

*D_NET *15 0.00194056
*CONN
*P uio_in[1] I
*I *1847:A I *D sky130_fd_sc_hd__clkbuf_2
*CAP
1 uio_in[1] 0.000503654
2 *1847:A 0
3 *15:19 0.000503654
4 *15:19 *16:19 0.000492593
5 *15:19 *17:15 0
6 *15:19 *55:10 3.22879e-05
7 *15:19 *55:23 2.4754e-05
8 *15:19 *77:10 9.84851e-05
9 *15:19 *101:16 3.80755e-05
10 *15:19 *101:26 0.000224605
11 *12:15 *15:19 0
12 *14:15 *15:19 2.24522e-05
*RES
1 uio_in[1] *15:19 40.0432 
2 *15:19 *1847:A 23 
*END

*D_NET *16 0.00236278
*CONN
*P uio_in[2] I
*I *1848:A I *D sky130_fd_sc_hd__buf_1
*CAP
1 uio_in[2] 0.000758351
2 *1848:A 0
3 *16:19 0.000758351
4 *16:19 *17:15 4.02518e-05
5 *16:19 *55:23 0.000267167
6 *16:19 *101:16 2.98648e-05
7 *16:19 *101:26 1.62015e-05
8 *16:19 *101:34 0
9 *14:15 *16:19 0
10 *15:19 *16:19 0.000492593
*RES
1 uio_in[2] *16:19 38.9254 
2 *16:19 *1848:A 23 
*END

*D_NET *17 0.000951273
*CONN
*P uio_in[3] I
*I *1849:A I *D sky130_fd_sc_hd__clkbuf_1
*CAP
1 uio_in[3] 0.000305618
2 *1849:A 0
3 *17:15 0.000305618
4 *17:15 *18:15 0.00028533
5 *17:15 *19:17 0
6 *17:15 *101:34 1.44546e-05
7 *15:19 *17:15 0
8 *16:19 *17:15 4.02518e-05
*RES
1 uio_in[3] *17:15 33.7314 
2 *17:15 *1849:A 23 
*END

*D_NET *18 0.00136294
*CONN
*P uio_in[4] I
*I *1850:A I *D sky130_fd_sc_hd__clkbuf_1
*CAP
1 uio_in[4] 0.000517201
2 *1850:A 0
3 *18:15 0.000517201
4 *18:15 *19:17 4.32044e-05
5 *18:15 *102:18 0
6 *17:15 *18:15 0.00028533
*RES
1 uio_in[4] *18:15 34.7381 
2 *18:15 *1850:A 23 
*END

*D_NET *19 0.00124181
*CONN
*P uio_in[5] I
*I *1851:A I *D sky130_fd_sc_hd__clkbuf_1
*CAP
1 uio_in[5] 0.000406307
2 *1851:A 0
3 *19:17 0.000406307
4 *19:17 uo_out[0] 0
5 *19:17 *20:19 4.02518e-05
6 *19:17 *59:12 9.84851e-05
7 *19:17 *102:18 0
8 *19:17 *105:10 5.70419e-05
9 *19:17 *105:16 0.000190218
10 *17:15 *19:17 0
11 *18:15 *19:17 4.32044e-05
*RES
1 uio_in[5] *19:17 35.9678 
2 *19:17 *1851:A 23 
*END

*D_NET *20 0.00143382
*CONN
*P uio_in[6] I
*I *1852:A I *D sky130_fd_sc_hd__clkbuf_1
*CAP
1 uio_in[6] 0.000404816
2 *1852:A 0
3 *20:19 0.000404816
4 *20:19 *1792:B 1.14154e-05
5 *20:19 *21:17 8.45366e-05
6 *20:19 *58:10 9.31425e-05
7 *20:19 *80:18 7.87147e-05
8 *20:19 *81:8 0.000316126
9 *19:17 *20:19 4.02518e-05
*RES
1 uio_in[6] *20:19 38.7149 
2 *20:19 *1852:A 23 
*END

*D_NET *21 0.00157711
*CONN
*P uio_in[7] I
*I *1853:A I *D sky130_fd_sc_hd__buf_1
*CAP
1 uio_in[7] 0.000568454
2 *1853:A 0
3 *21:17 0.000568454
4 *21:17 uo_out[0] 4.32044e-05
5 *21:17 *1806:C1 0.000144494
6 *21:17 *59:29 3.43144e-05
7 *21:17 *82:8 0.000133649
8 *21:17 *103:18 0
9 *20:19 *21:17 8.45366e-05
*RES
1 uio_in[7] *21:17 38.4339 
2 *21:17 *1853:A 23 
*END

*D_NET *22 0.000472565
*CONN
*P uio_oe[0] O
*I *1814:X O *D sky130_fd_sc_hd__buf_2
*CAP
1 uio_oe[0] 7.37673e-05
2 *1814:X 7.87241e-05
3 *22:12 0.000152491
4 uio_oe[0] uio_oe[1] 8.37912e-05
5 uio_oe[0] uio_out[7] 8.37912e-05
*RES
1 *1814:X *22:12 46.42 
2 *22:12 uio_oe[0] 8.50587 
*END

*D_NET *23 0.000525791
*CONN
*P uio_oe[1] O
*I *1816:X O *D sky130_fd_sc_hd__buf_2
*CAP
1 uio_oe[1] 7.37673e-05
2 *1816:X 0.000105337
3 *23:12 0.000179104
4 uio_oe[1] uio_oe[2] 8.37912e-05
5 uio_oe[0] uio_oe[1] 8.37912e-05
*RES
1 *1816:X *23:12 46.5059 
2 *23:12 uio_oe[1] 8.50587 
*END

*D_NET *24 0.000479321
*CONN
*P uio_oe[2] O
*I *1818:X O *D sky130_fd_sc_hd__buf_2
*CAP
1 uio_oe[2] 7.37673e-05
2 *1818:X 8.21021e-05
3 *24:12 0.000155869
4 uio_oe[2] uio_oe[3] 8.37912e-05
5 uio_oe[1] uio_oe[2] 8.37912e-05
*RES
1 *1818:X *24:12 46.42 
2 *24:12 uio_oe[2] 8.50587 
*END

*D_NET *25 0.000735941
*CONN
*P uio_oe[3] O
*I *1820:X O *D sky130_fd_sc_hd__buf_2
*CAP
1 uio_oe[3] 7.37673e-05
2 *1820:X 0.000210412
3 *25:14 0.000284179
4 uio_oe[3] uio_oe[4] 8.37912e-05
5 uio_oe[2] uio_oe[3] 8.37912e-05
*RES
1 *1820:X *25:14 47.9943 
2 *25:14 uio_oe[3] 8.50587 
*END

*D_NET *26 0.000525791
*CONN
*P uio_oe[4] O
*I *1822:X O *D sky130_fd_sc_hd__buf_2
*CAP
1 uio_oe[4] 7.37673e-05
2 *1822:X 0.000105337
3 *26:12 0.000179104
4 uio_oe[4] uio_oe[5] 8.37912e-05
5 uio_oe[3] uio_oe[4] 8.37912e-05
*RES
1 *1822:X *26:12 46.5059 
2 *26:12 uio_oe[4] 8.50587 
*END

*D_NET *27 0.000525791
*CONN
*P uio_oe[5] O
*I *1824:X O *D sky130_fd_sc_hd__buf_2
*CAP
1 uio_oe[5] 7.37673e-05
2 *1824:X 0.000105337
3 *27:12 0.000179104
4 uio_oe[5] uio_oe[6] 8.37912e-05
5 uio_oe[4] uio_oe[5] 8.37912e-05
*RES
1 *1824:X *27:12 46.5059 
2 *27:12 uio_oe[5] 8.50587 
*END

*D_NET *28 0.000473148
*CONN
*P uio_oe[6] O
*I *1826:X O *D sky130_fd_sc_hd__buf_2
*CAP
1 uio_oe[6] 7.37673e-05
2 *1826:X 7.62249e-05
3 *28:12 0.000149992
4 uio_oe[6] uio_oe[7] 8.37912e-05
5 *28:12 *29:12 5.58152e-06
6 uio_oe[5] uio_oe[6] 8.37912e-05
*RES
1 *1826:X *28:12 46.42 
2 *28:12 uio_oe[6] 8.50587 
*END

*D_NET *29 0.000547133
*CONN
*P uio_oe[7] O
*I *1828:X O *D sky130_fd_sc_hd__buf_2
*CAP
1 uio_oe[7] 0.000100332
2 *1828:X 0.000128548
3 *29:12 0.00022888
4 uio_oe[6] uio_oe[7] 8.37912e-05
5 *28:12 *29:12 5.58152e-06
*RES
1 *1828:X *29:12 46.5917 
2 *29:12 uio_oe[7] 8.50587 
*END

*D_NET *30 0.00103962
*CONN
*P uio_out[0] O
*I *1830:X O *D sky130_fd_sc_hd__buf_2
*CAP
1 uio_out[0] 5.88605e-05
2 *1830:X 0.000281323
3 *30:12 0.000340183
4 uio_out[0] uio_out[1] 6.30391e-05
5 uio_out[0] uo_out[7] 6.30391e-05
6 *30:12 *31:12 0.000233175
*RES
1 *1830:X *30:12 47.6395 
2 *30:12 uio_out[0] 8.37893 
*END

*D_NET *31 0.000878602
*CONN
*P uio_out[1] O
*I *1832:X O *D sky130_fd_sc_hd__buf_2
*CAP
1 uio_out[1] 0.000100881
2 *1832:X 0.000148417
3 *31:12 0.000249298
4 uio_out[1] uio_out[2] 8.37912e-05
5 uio_out[0] uio_out[1] 6.30391e-05
6 *30:12 *31:12 0.000233175
*RES
1 *1832:X *31:12 46.7635 
2 *31:12 uio_out[1] 8.50587 
*END

*D_NET *32 0.000525791
*CONN
*P uio_out[2] O
*I *1834:X O *D sky130_fd_sc_hd__buf_2
*CAP
1 uio_out[2] 7.37673e-05
2 *1834:X 0.000105337
3 *32:12 0.000179104
4 uio_out[2] uio_out[3] 8.37912e-05
5 uio_out[1] uio_out[2] 8.37912e-05
*RES
1 *1834:X *32:12 46.5059 
2 *32:12 uio_out[2] 8.50587 
*END

*D_NET *33 0.00052353
*CONN
*P uio_out[3] O
*I *1836:X O *D sky130_fd_sc_hd__buf_2
*CAP
1 uio_out[3] 9.68363e-05
2 *1836:X 0.000102907
3 *33:12 0.000199743
4 uio_out[3] uio_out[4] 4.02518e-05
5 uio_out[3] uio_out[6] 0
6 uio_out[2] uio_out[3] 8.37912e-05
*RES
1 *1836:X *33:12 46.5059 
2 *33:12 uio_out[3] 8.50587 
*END

*D_NET *34 0.000506328
*CONN
*P uio_out[4] O
*I *1838:X O *D sky130_fd_sc_hd__buf_2
*CAP
1 uio_out[4] 4.6354e-05
2 *1838:X 0.000166558
3 *34:12 0.000212912
4 uio_out[4] uio_out[5] 4.02518e-05
5 *34:12 *35:14 0
6 uio_out[3] uio_out[4] 4.02518e-05
*RES
1 *1838:X *34:12 47.8286 
2 *34:12 uio_out[4] 8.252 
*END

*D_NET *35 0.000760883
*CONN
*P uio_out[5] O
*I *1840:X O *D sky130_fd_sc_hd__buf_2
*CAP
1 uio_out[5] 3.55916e-05
2 *1840:X 0.000292364
3 *35:14 0.000327955
4 uio_out[5] uio_out[6] 4.52396e-05
5 *35:14 *1840:A 1.94812e-05
6 uio_out[4] uio_out[5] 4.02518e-05
7 *34:12 *35:14 0
*RES
1 *1840:X *35:14 49.0123 
2 *35:14 uio_out[5] 8.252 
*END

*D_NET *36 0.000477276
*CONN
*P uio_out[6] O
*I *1842:X O *D sky130_fd_sc_hd__buf_2
*CAP
1 uio_out[6] 9.54273e-05
2 *1842:X 7.86953e-05
3 *36:12 0.000174123
4 uio_out[6] uio_out[7] 8.37912e-05
5 uio_out[3] uio_out[6] 0
6 uio_out[5] uio_out[6] 4.52396e-05
*RES
1 *1842:X *36:12 46.42 
2 *36:12 uio_out[6] 8.50587 
*END

*D_NET *37 0.000472508
*CONN
*P uio_out[7] O
*I *1844:X O *D sky130_fd_sc_hd__buf_2
*CAP
1 uio_out[7] 7.37673e-05
2 *1844:X 7.86953e-05
3 *37:12 0.000152463
4 uio_oe[0] uio_out[7] 8.37912e-05
5 uio_out[6] uio_out[7] 8.37912e-05
*RES
1 *1844:X *37:12 46.42 
2 *37:12 uio_out[7] 8.50587 
*END

*D_NET *38 0.00941906
*CONN
*P uo_out[0] O
*I *1813:X O *D sky130_fd_sc_hd__and2_4
*CAP
1 uo_out[0] 0.00367719
2 *1813:X 0
3 *38:6 0.00367719
4 uo_out[0] uo_out[1] 0.00158545
5 uo_out[0] *1777:B 0
6 uo_out[0] *1813:A 0
7 uo_out[0] *39:8 0.000284108
8 uo_out[0] *75:29 0.00015192
9 uo_out[0] *102:8 0
10 *10:15 uo_out[0] 0
11 *19:17 uo_out[0] 0
12 *21:17 uo_out[0] 4.32044e-05
*RES
1 *1813:X *38:6 38 
2 *38:6 uo_out[0] 44.0755 
*END

*D_NET *39 0.00983616
*CONN
*P uo_out[1] O
*I *1780:Y O *D sky130_fd_sc_hd__xnor2_4
*CAP
1 uo_out[1] 0.00176383
2 *1780:Y 0.000452598
3 *39:8 0.00221642
4 uo_out[1] uo_out[2] 0.00353375
5 *39:8 *102:8 0
6 uo_out[0] uo_out[1] 0.00158545
7 uo_out[0] *39:8 0.000284108
8 *9:17 *39:8 0
*RES
1 *1780:Y *39:8 48.8854 
2 *39:8 uo_out[1] 26.9536 
*END

*D_NET *40 0.00863931
*CONN
*P uo_out[2] O
*I *1785:X O *D sky130_fd_sc_hd__xor2_4
*CAP
1 uo_out[2] 0.00202729
2 *1785:X 0.00202729
3 uo_out[2] uo_out[3] 0.00105097
4 uo_out[2] *1782:B 0
5 uo_out[2] *52:27 0
6 uo_out[1] uo_out[2] 0.00353375
*RES
1 *1785:X uo_out[2] 47.9971 
*END

*D_NET *41 0.00571247
*CONN
*P uo_out[3] O
*I *1791:X O *D sky130_fd_sc_hd__xor2_4
*CAP
1 uo_out[3] 0.00220688
2 *1791:X 0.00220688
3 uo_out[3] uo_out[4] 0.000247743
4 uo_out[3] *62:38 0
5 uo_out[2] uo_out[3] 0.00105097
*RES
1 *1791:X uo_out[3] 43.4427 
*END

*D_NET *42 0.00329929
*CONN
*P uo_out[4] O
*I *1797:Y O *D sky130_fd_sc_hd__xnor2_4
*CAP
1 uo_out[4] 0.000412071
2 *1797:Y 0.00094817
3 *42:6 0.00136024
4 uo_out[4] uo_out[5] 0.000251819
5 uo_out[4] *73:16 2.26406e-05
6 *42:6 *1802:A 1.94812e-05
7 *42:6 *1802:B 3.71251e-05
8 uo_out[3] uo_out[4] 0.000247743
*RES
1 *1797:Y *42:6 35.0557 
2 *42:6 uo_out[4] 33.0272 
*END

*D_NET *43 0.00154394
*CONN
*P uo_out[5] O
*I *1802:Y O *D sky130_fd_sc_hd__xnor2_4
*CAP
1 uo_out[5] 0.000298988
2 *1802:Y 0.000247976
3 *43:14 0.000546964
4 uo_out[5] uo_out[6] 0.000104537
5 uo_out[5] uo_out[7] 0
6 *43:14 *1811:B 9.36522e-05
7 *43:14 *72:10 0
8 uo_out[4] uo_out[5] 0.000251819
*RES
1 *1802:Y *43:14 48.9471 
2 *43:14 uo_out[5] 9.52133 
*END

*D_NET *44 0.000895755
*CONN
*P uo_out[6] O
*I *1808:Y O *D sky130_fd_sc_hd__xnor2_4
*CAP
1 uo_out[6] 7.79189e-05
2 *1808:Y 0.000262928
3 *44:12 0.000340846
4 uo_out[6] uo_out[7] 0.000109525
5 uo_out[5] uo_out[6] 0.000104537
*RES
1 *1808:Y *44:12 49.5893 
2 *44:12 uo_out[6] 8.6328 
*END

*D_NET *45 0.00108109
*CONN
*P uo_out[7] O
*I *1811:Y O *D sky130_fd_sc_hd__xnor2_4
*CAP
1 uo_out[7] 0.000358471
2 *1811:Y 9.57911e-05
3 *45:12 0.000454262
4 *45:12 *72:10 0
5 uio_out[0] uo_out[7] 6.30391e-05
6 uo_out[5] uo_out[7] 0
7 uo_out[6] uo_out[7] 0.000109525
*RES
1 *1811:Y *45:12 46.7721 
2 *45:12 uo_out[7] 9.52133 
*END

*D_NET *46 0.00119501
*CONN
*I *1780:A I *D sky130_fd_sc_hd__xnor2_4
*I *1813:A I *D sky130_fd_sc_hd__and2_4
*I *1777:Y O *D sky130_fd_sc_hd__nand2_2
*CAP
1 *1780:A 0
2 *1813:A 0.000200758
3 *1777:Y 0.000199932
4 *46:10 0.00040069
5 *1813:A *1812:B 6.86685e-05
6 *46:10 *1777:B 0.000271128
7 *46:10 *1812:B 5.3835e-05
8 uo_out[0] *1813:A 0
*RES
1 *1777:Y *46:10 43.0129 
2 *46:10 *1813:A 41.2314 
3 *46:10 *1780:A 38 
*END

*D_NET *47 0.000126903
*CONN
*I *1781:B1 I *D sky130_fd_sc_hd__a31o_2
*I *1778:X O *D sky130_fd_sc_hd__and2_1
*CAP
1 *1781:B1 6.74574e-06
2 *1778:X 6.74574e-06
3 *1781:B1 *1778:A 5.67058e-05
4 *1781:B1 *1780:B 5.67058e-05
*RES
1 *1778:X *1781:B1 46.6214 
*END

*D_NET *48 0.00221205
*CONN
*I *1780:B I *D sky130_fd_sc_hd__xnor2_4
*I *1781:A3 I *D sky130_fd_sc_hd__a31o_2
*I *1779:X O *D sky130_fd_sc_hd__xor2_4
*CAP
1 *1780:B 0.000245249
2 *1781:A3 4.75406e-05
3 *1779:X 6.97035e-05
4 *48:8 0.000362493
5 *1780:B *1778:A 8.24045e-05
6 *1780:B *1778:B 5.3304e-05
7 *1780:B *1781:A1 0.000636844
8 *1780:B *75:16 2.31687e-05
9 *1780:B *106:12 0.000274125
10 *1781:A3 *1778:A 5.41385e-05
11 *1781:A3 *1781:A1 5.50049e-05
12 *1781:A3 *1781:A2 5.50049e-05
13 *1781:A3 *106:12 1.76557e-05
14 *48:8 *1778:A 6.6869e-05
15 *48:8 *1778:B 0.000111842
16 *1781:B1 *1780:B 5.67058e-05
*RES
1 *1779:X *48:8 31.9057 
2 *48:8 *1781:A3 24.5743 
3 *48:8 *1780:B 32.8393 
*END

*D_NET *49 0.00287732
*CONN
*I *1790:A1 I *D sky130_fd_sc_hd__a21bo_1
*I *1796:A1 I *D sky130_fd_sc_hd__a31oi_4
*I *1785:A I *D sky130_fd_sc_hd__xor2_4
*I *1781:X O *D sky130_fd_sc_hd__a31o_2
*CAP
1 *1790:A1 0.000115784
2 *1796:A1 0.000123651
3 *1785:A 4.25143e-05
4 *1781:X 0.000150874
5 *49:25 0.000883704
6 *49:10 0.000837657
7 *1785:A *52:27 4.21594e-06
8 *1790:A1 *1784:B 0
9 *1790:A1 *1790:B1_N 0
10 *1790:A1 *61:10 0.000102629
11 *1796:A1 *1784:B 0
12 *1796:A1 *61:10 0.000252131
13 *49:10 *97:32 9.84851e-05
14 *49:10 *101:10 3.21223e-05
15 *49:10 *104:8 1.83564e-05
16 *49:10 *106:6 2.7237e-05
17 *49:25 *1783:A 2.64616e-05
18 *49:25 *1791:A 2.64616e-05
19 *49:25 *51:8 0.000135037
*RES
1 *1781:X *49:10 41.0036 
2 *49:10 *1785:A 38.8493 
3 *49:10 *49:25 40.6264 
4 *49:25 *1796:A1 41.3143 
5 *49:25 *1790:A1 40.2579 
*END

*D_NET *50 0.00123894
*CONN
*I *1784:A I *D sky130_fd_sc_hd__and2_2
*I *1782:X O *D sky130_fd_sc_hd__or2_1
*CAP
1 *1784:A 0
2 *1782:X 0.000444915
3 *50:10 0.000444915
4 *50:10 *1782:A 0.000252161
5 *50:10 *1784:B 7.03663e-05
6 *50:10 *62:10 2.65879e-05
*RES
1 *1782:X *50:10 45.7679 
2 *50:10 *1784:A 38 
*END

*D_NET *51 0.00174275
*CONN
*I *1790:B1_N I *D sky130_fd_sc_hd__a21bo_1
*I *1784:B I *D sky130_fd_sc_hd__and2_2
*I *1783:Y O *D sky130_fd_sc_hd__nand2_1
*CAP
1 *1790:B1_N 9.16728e-05
2 *1784:B 0.000309625
3 *1783:Y 0.000126469
4 *51:8 0.000527767
5 *1784:B *1796:A3 0.000191148
6 *1784:B *52:8 7.80354e-05
7 *1784:B *56:14 7.70737e-05
8 *1790:B1_N *56:14 0.000135557
9 *1790:A1 *1784:B 0
10 *1790:A1 *1790:B1_N 0
11 *1796:A1 *1784:B 0
12 *49:25 *51:8 0.000135037
13 *50:10 *1784:B 7.03663e-05
*RES
1 *1783:Y *51:8 39.5743 
2 *51:8 *1784:B 44.8357 
3 *51:8 *1790:B1_N 39.9057 
*END

*D_NET *52 0.0038326
*CONN
*I *1790:A2 I *D sky130_fd_sc_hd__a21bo_1
*I *1785:B I *D sky130_fd_sc_hd__xor2_4
*I *1796:A2 I *D sky130_fd_sc_hd__a31oi_4
*I *1784:X O *D sky130_fd_sc_hd__and2_2
*CAP
1 *1790:A2 0.000358259
2 *1785:B 0
3 *1796:A2 6.50325e-05
4 *1784:X 0.000110074
5 *52:27 0.000642877
6 *52:10 0.000707909
7 *52:8 0.000468333
8 *1790:A2 *1782:A 0.000164282
9 *1790:A2 *1796:A3 0.000154138
10 *1790:A2 *53:10 3.22879e-05
11 *1790:A2 *56:14 0.000238194
12 *1790:A2 *77:10 1.22803e-05
13 *1790:A2 *77:12 1.37349e-05
14 *1790:A2 *97:38 0.000175612
15 *1790:A2 *105:10 0.000164508
16 *1796:A2 *1782:A 2.18506e-05
17 *1796:A2 *1782:B 9.41704e-05
18 *1796:A2 *1796:A3 5.3304e-05
19 *52:8 *1782:A 5.94125e-05
20 *52:8 *1796:A3 3.47781e-05
21 *52:27 *1782:B 9.5877e-05
22 *52:27 *1796:A3 8.34394e-05
23 uo_out[2] *52:27 0
24 *1784:B *52:8 7.80354e-05
25 *1785:A *52:27 4.21594e-06
*RES
1 *1784:X *52:8 40.61 
2 *52:8 *52:10 15 
3 *52:10 *1796:A2 24.595 
4 *52:10 *52:27 41.455 
5 *52:27 *1785:B 23 
6 *52:8 *1790:A2 46.9071 
*END

*D_NET *53 0.000676102
*CONN
*I *1789:A I *D sky130_fd_sc_hd__nor2_2
*I *1786:Y O *D sky130_fd_sc_hd__nor2_1
*CAP
1 *1789:A 0
2 *1786:Y 0.000289297
3 *53:10 0.000289297
4 *53:10 *56:14 0
5 *53:10 *77:10 0
6 *53:10 *101:26 0
7 *53:10 *101:34 2.93845e-05
8 *53:10 *105:10 3.58358e-05
9 *1790:A2 *53:10 3.22879e-05
*RES
1 *1786:Y *53:10 42.4329 
2 *53:10 *1789:A 38 
*END

*D_NET *54 0.000626693
*CONN
*I *1795:A3 I *D sky130_fd_sc_hd__a31o_1
*I *1787:X O *D sky130_fd_sc_hd__or2_1
*CAP
1 *1795:A3 8.53934e-05
2 *1787:X 5.84014e-05
3 *54:8 0.000143795
4 *1795:A3 *97:32 7.53384e-06
5 *1795:A3 *97:38 4.96717e-05
6 *54:8 *55:23 0.000140949
7 *54:8 *77:10 0.000140949
*RES
1 *1787:X *54:8 39.9057 
2 *54:8 *1795:A3 39.595 
*END

*D_NET *55 0.00153415
*CONN
*I *1795:B1 I *D sky130_fd_sc_hd__a31o_1
*I *1789:B I *D sky130_fd_sc_hd__nor2_2
*I *1788:X O *D sky130_fd_sc_hd__and2_1
*CAP
1 *1795:B1 0
2 *1789:B 0
3 *1788:X 8.03177e-05
4 *55:23 0.000194001
5 *55:10 0.000274319
6 *55:10 *1787:B 0.000130045
7 *55:10 *1788:B 0
8 *55:10 *101:26 0.000112463
9 *55:23 *1787:B 8.6949e-05
10 *55:23 *77:10 2.45709e-05
11 *55:23 *101:16 6.99492e-05
12 *14:15 *55:23 9.63815e-05
13 *15:19 *55:10 3.22879e-05
14 *15:19 *55:23 2.4754e-05
15 *16:19 *55:23 0.000267167
16 *54:8 *55:23 0.000140949
*RES
1 *1788:X *55:10 26.045 
2 *55:10 *1789:B 23 
3 *55:10 *55:23 36.09 
4 *55:23 *1795:B1 23 
*END

*D_NET *56 0.00209658
*CONN
*I *1791:A I *D sky130_fd_sc_hd__xor2_4
*I *1796:A3 I *D sky130_fd_sc_hd__a31oi_4
*I *1789:Y O *D sky130_fd_sc_hd__nor2_2
*CAP
1 *1791:A 4.24639e-05
2 *1796:A3 0.000130681
3 *1789:Y 0.000300611
4 *56:14 0.000473756
5 *1796:A3 *1782:A 9.58714e-05
6 *56:14 *1787:B 5.50049e-05
7 *56:14 *77:10 4.09412e-06
8 *56:14 *101:34 0
9 *1784:B *1796:A3 0.000191148
10 *1784:B *56:14 7.70737e-05
11 *1790:A2 *1796:A3 0.000154138
12 *1790:A2 *56:14 0.000238194
13 *1790:B1_N *56:14 0.000135557
14 *1796:A2 *1796:A3 5.3304e-05
15 *49:25 *1791:A 2.64616e-05
16 *52:8 *1796:A3 3.47781e-05
17 *52:27 *1796:A3 8.34394e-05
18 *53:10 *56:14 0
*RES
1 *1789:Y *56:14 44.4629 
2 *56:14 *1796:A3 42.1843 
3 *56:14 *1791:A 38.6214 
*END

*D_NET *57 0.000265421
*CONN
*I *1791:B I *D sky130_fd_sc_hd__xor2_4
*I *1790:X O *D sky130_fd_sc_hd__a21bo_1
*CAP
1 *1791:B 0
2 *1790:X 8.8906e-05
3 *57:8 8.8906e-05
4 *57:8 *61:10 8.76088e-05
*RES
1 *1790:X *57:8 40.2579 
2 *57:8 *1791:B 38 
*END

*D_NET *58 0.0037089
*CONN
*I *1806:A1 I *D sky130_fd_sc_hd__o211a_1
*I *1794:A_N I *D sky130_fd_sc_hd__and2b_1
*I *1801:A1 I *D sky130_fd_sc_hd__o21a_1
*I *1792:Y O *D sky130_fd_sc_hd__nor2_1
*CAP
1 *1806:A1 0
2 *1794:A_N 3.2866e-05
3 *1801:A1 2.1727e-05
4 *1792:Y 0.000736076
5 *58:24 0.00024747
6 *58:16 0.00027547
7 *58:10 0.000818669
8 *1794:A_N *1801:B1 2.31687e-05
9 *1801:A1 *1801:B1 4.00259e-06
10 *58:10 *1792:B 5.67058e-05
11 *58:10 *1798:B 1.24376e-05
12 *58:10 *64:8 0.000109352
13 *58:10 *73:8 3.54728e-05
14 *58:10 *80:18 0.000418192
15 *58:16 *1806:C1 0
16 *58:16 *64:22 5.55371e-05
17 *58:16 *73:16 0.000139346
18 *58:24 *1801:B1 2.93747e-05
19 *58:24 *62:27 0.000407218
20 *58:24 *64:22 0.000192671
21 *20:19 *58:10 9.31425e-05
*RES
1 *1792:Y *58:10 48.7507 
2 *58:10 *58:16 17.0714 
3 *58:16 *58:24 36.0486 
4 *58:24 *1801:A1 23.4971 
5 *58:24 *1794:A_N 23.6214 
6 *58:16 *1806:A1 23 
*END

*D_NET *59 0.00357977
*CONN
*I *1801:B1 I *D sky130_fd_sc_hd__o21a_1
*I *1794:B I *D sky130_fd_sc_hd__and2b_1
*I *1806:C1 I *D sky130_fd_sc_hd__o211a_1
*I *1793:Y O *D sky130_fd_sc_hd__nand2_1
*CAP
1 *1801:B1 0.000207118
2 *1794:B 0
3 *1806:C1 0.000151122
4 *1793:Y 0.000104002
5 *59:29 0.000607601
6 *59:12 0.000922
7 *59:8 0.000474397
8 *1801:B1 *1801:A2 2.93747e-05
9 *1801:B1 *62:14 0.000116653
10 *1801:B1 *64:22 1.24376e-05
11 *1806:C1 *64:22 5.47983e-06
12 *1806:C1 *73:16 5.79559e-05
13 *59:8 *78:10 0
14 *59:12 *80:10 0.000139346
15 *59:12 *105:10 0.000120042
16 *59:29 *60:10 0.000151718
17 *59:29 *62:14 0.000146689
18 *59:29 *62:27 0
19 *1794:A_N *1801:B1 2.31687e-05
20 *1801:A1 *1801:B1 4.00259e-06
21 *19:17 *59:12 9.84851e-05
22 *21:17 *1806:C1 0.000144494
23 *21:17 *59:29 3.43144e-05
24 *58:16 *1806:C1 0
25 *58:24 *1801:B1 2.93747e-05
*RES
1 *1793:Y *59:8 39.5536 
2 *59:8 *59:12 22.7679 
3 *59:12 *1806:C1 26.0243 
4 *59:12 *59:29 38.41 
5 *59:29 *1794:B 23 
6 *59:29 *1801:B1 27.9507 
*END

*D_NET *60 0.000638664
*CONN
*I *1797:A I *D sky130_fd_sc_hd__xnor2_4
*I *1794:X O *D sky130_fd_sc_hd__and2b_1
*CAP
1 *1797:A 0.000118278
2 *1794:X 0.000125195
3 *60:10 0.000243473
4 *60:10 *62:27 0
5 *59:29 *60:10 0.000151718
*RES
1 *1794:X *60:10 40.5271 
2 *60:10 *1797:A 39.5743 
*END

*D_NET *61 0.00142511
*CONN
*I *1796:B1 I *D sky130_fd_sc_hd__a31oi_4
*I *1795:X O *D sky130_fd_sc_hd__a31o_1
*CAP
1 *1796:B1 0
2 *1795:X 0.000358636
3 *61:10 0.000358636
4 *61:10 *105:10 0.000265466
5 *1790:A1 *61:10 0.000102629
6 *1796:A1 *61:10 0.000252131
7 *57:8 *61:10 8.76088e-05
*RES
1 *1795:X *61:10 45.7264 
2 *61:10 *1796:B1 38 
*END

*D_NET *62 0.00420702
*CONN
*I *1797:B I *D sky130_fd_sc_hd__xnor2_4
*I *1806:A2 I *D sky130_fd_sc_hd__o211a_1
*I *1801:A2 I *D sky130_fd_sc_hd__o21a_1
*I *1796:Y O *D sky130_fd_sc_hd__a31oi_4
*CAP
1 *1797:B 0
2 *1806:A2 0
3 *1801:A2 4.22723e-05
4 *1796:Y 0.000350126
5 *62:38 0.000135173
6 *62:27 0.000323988
7 *62:14 0.00111273
8 *62:10 0.00123176
9 *62:10 *1782:A 0.000179824
10 *62:10 *1782:B 6.84574e-05
11 *62:27 *64:8 1.14452e-05
12 *62:27 *64:22 2.472e-05
13 uo_out[3] *62:38 0
14 *1801:B1 *1801:A2 2.93747e-05
15 *1801:B1 *62:14 0.000116653
16 *50:10 *62:10 2.65879e-05
17 *58:24 *62:27 0.000407218
18 *59:29 *62:14 0.000146689
19 *59:29 *62:27 0
20 *60:10 *62:27 0
*RES
1 *1796:Y *62:10 30.4571 
2 *62:10 *62:14 11.2271 
3 *62:14 *1801:A2 23.6214 
4 *62:14 *62:27 36.8357 
5 *62:27 *1806:A2 23 
6 *62:10 *62:38 32.2579 
7 *62:38 *1797:B 23 
*END

*D_NET *63 0.00361222
*CONN
*I *1809:A1 I *D sky130_fd_sc_hd__o31a_2
*I *1807:A I *D sky130_fd_sc_hd__nor2_2
*I *1800:A_N I *D sky130_fd_sc_hd__and2b_1
*I *1798:Y O *D sky130_fd_sc_hd__nor2_1
*CAP
1 *1809:A1 0.000148901
2 *1807:A 0
3 *1800:A_N 0.00042141
4 *1798:Y 0.000649036
5 *63:23 0.000148901
6 *63:10 0.00107045
7 *1800:A_N *64:22 5.37348e-06
8 *1800:A_N *65:8 0.00014411
9 *1800:A_N *67:16 0
10 *1800:A_N *73:16 0
11 *1809:A1 *1807:B 5.90675e-06
12 *1809:A1 *1808:A 5.50049e-05
13 *1809:A1 *1809:A2 1.42144e-05
14 *1809:A1 *1809:A3 0.000134622
15 *1809:A1 *70:6 5.40241e-05
16 *1809:A1 *71:10 3.93031e-05
17 *1809:A1 *73:16 0.000313463
18 *63:10 *1798:B 5.79559e-05
19 *63:10 *1804:A 4.94226e-05
20 *63:10 *1804:B 0.000144278
21 *63:10 *1805:B 2.93845e-05
22 *63:10 *67:8 2.9938e-05
23 *63:10 *67:16 0
24 *63:10 *81:8 9.6523e-05
*RES
1 *1798:Y *63:10 48.15 
2 *63:10 *1800:A_N 45.4779 
3 *63:10 *63:23 15 
4 *63:23 *1807:A 23 
5 *63:23 *1809:A1 28.5721 
*END

*D_NET *64 0.00247629
*CONN
*I *1806:B1 I *D sky130_fd_sc_hd__o211a_1
*I *1800:B I *D sky130_fd_sc_hd__and2b_1
*I *1799:Y O *D sky130_fd_sc_hd__nand2_1
*CAP
1 *1806:B1 0
2 *1800:B 0
3 *1799:Y 0.000108582
4 *64:22 0.000871806
5 *64:10 0.000871806
6 *64:8 0.000108582
7 *64:22 *66:8 7.03766e-05
8 *64:22 *73:16 2.812e-05
9 *1800:A_N *64:22 5.37348e-06
10 *1801:B1 *64:22 1.24376e-05
11 *1806:C1 *64:22 5.47983e-06
12 *58:10 *64:8 0.000109352
13 *58:16 *64:22 5.55371e-05
14 *58:24 *64:22 0.000192671
15 *62:27 *64:8 1.14452e-05
16 *62:27 *64:22 2.472e-05
*RES
1 *1799:Y *64:8 39.9057 
2 *64:8 *64:10 15 
3 *64:10 *64:22 46.4471 
4 *64:22 *1800:B 23 
5 *64:10 *1806:B1 23 
*END

*D_NET *65 0.000382782
*CONN
*I *1802:A I *D sky130_fd_sc_hd__xnor2_4
*I *1800:X O *D sky130_fd_sc_hd__and2b_1
*CAP
1 *1802:A 3.42813e-05
2 *1800:X 7.5314e-05
3 *65:8 0.000109595
4 *1800:A_N *65:8 0.00014411
5 *42:6 *1802:A 1.94812e-05
*RES
1 *1800:X *65:8 39.9057 
2 *65:8 *1802:A 38.6214 
*END

*D_NET *66 0.000385343
*CONN
*I *1802:B I *D sky130_fd_sc_hd__xnor2_4
*I *1801:X O *D sky130_fd_sc_hd__o21a_1
*CAP
1 *1802:B 5.25882e-05
2 *1801:X 8.63323e-05
3 *66:8 0.00013892
4 *42:6 *1802:B 3.71251e-05
5 *64:22 *66:8 7.03766e-05
*RES
1 *1801:X *66:8 39.9057 
2 *66:8 *1802:B 39.0979 
*END

*D_NET *67 0.00134478
*CONN
*I *1805:A I *D sky130_fd_sc_hd__nand2_2
*I *1809:B1 I *D sky130_fd_sc_hd__o31a_2
*I *1803:Y O *D sky130_fd_sc_hd__nand2_1
*CAP
1 *1805:A 0
2 *1809:B1 0
3 *1803:Y 0.000208354
4 *67:16 0.000232683
5 *67:8 0.000441037
6 *67:8 *1804:A 0.000143869
7 *67:8 *1804:B 2.4754e-05
8 *67:8 *1805:B 5.67058e-05
9 *67:16 *69:10 0.000148029
10 *67:16 *73:16 5.94125e-05
11 *1800:A_N *67:16 0
12 *63:10 *67:8 2.9938e-05
13 *63:10 *67:16 0
*RES
1 *1803:Y *67:8 27.93 
2 *67:8 *67:16 34.6607 
3 *67:16 *1809:B1 23 
4 *67:8 *1805:A 23 
*END

*D_NET *68 0.000113892
*CONN
*I *1805:B I *D sky130_fd_sc_hd__nand2_2
*I *1804:X O *D sky130_fd_sc_hd__or2_1
*CAP
1 *1805:B 1.39009e-05
2 *1804:X 1.39009e-05
3 *63:10 *1805:B 2.93845e-05
4 *67:8 *1805:B 5.67058e-05
*RES
1 *1804:X *1805:B 46.6214 
*END

*D_NET *69 0.00194969
*CONN
*I *1808:A I *D sky130_fd_sc_hd__xnor2_4
*I *1809:A2 I *D sky130_fd_sc_hd__o31a_2
*I *1805:Y O *D sky130_fd_sc_hd__nand2_2
*CAP
1 *1808:A 0.000425055
2 *1809:A2 5.11346e-05
3 *1805:Y 0.000213065
4 *69:10 0.000689254
5 *1808:A *71:10 0.000242052
6 *1809:A2 *71:10 1.54549e-05
7 *1809:A2 *73:16 5.94125e-05
8 *69:10 *73:16 3.70187e-05
9 *1809:A1 *1808:A 5.50049e-05
10 *1809:A1 *1809:A2 1.42144e-05
11 *67:16 *69:10 0.000148029
*RES
1 *1805:Y *69:10 41.9564 
2 *69:10 *1809:A2 39.015 
3 *69:10 *1808:A 46.7414 
*END

*D_NET *70 0.0014477
*CONN
*I *1807:B I *D sky130_fd_sc_hd__nor2_2
*I *1809:A3 I *D sky130_fd_sc_hd__o31a_2
*I *1806:X O *D sky130_fd_sc_hd__o211a_1
*CAP
1 *1807:B 2.14194e-05
2 *1809:A3 5.41036e-05
3 *1806:X 0.000330353
4 *70:6 0.000405876
5 *1809:A3 *71:10 0.000185434
6 *70:6 *73:16 0.000255962
7 *1809:A1 *1807:B 5.90675e-06
8 *1809:A1 *1809:A3 0.000134622
9 *1809:A1 *70:6 5.40241e-05
*RES
1 *1806:X *70:6 31.2443 
2 *70:6 *1809:A3 25.5271 
3 *70:6 *1807:B 23.4971 
*END

*D_NET *71 0.00145684
*CONN
*I *1808:B I *D sky130_fd_sc_hd__xnor2_4
*I *1807:Y O *D sky130_fd_sc_hd__nor2_2
*CAP
1 *1808:B 0
2 *1807:Y 0.000350147
3 *71:10 0.000350147
4 *71:10 *72:10 0.000274298
5 *1808:A *71:10 0.000242052
6 *1809:A1 *71:10 3.93031e-05
7 *1809:A2 *71:10 1.54549e-05
8 *1809:A3 *71:10 0.000185434
*RES
1 *1807:Y *71:10 32.715 
2 *71:10 *1808:B 23 
*END

*D_NET *72 0.000901289
*CONN
*I *1811:A I *D sky130_fd_sc_hd__xnor2_4
*I *1809:X O *D sky130_fd_sc_hd__o31a_2
*CAP
1 *1811:A 0
2 *1809:X 0.000313496
3 *72:10 0.000313496
4 *72:10 *73:16 0
5 *43:14 *72:10 0
6 *45:12 *72:10 0
7 *71:10 *72:10 0.000274298
*RES
1 *1809:X *72:10 43.2614 
2 *72:10 *1811:A 38 
*END

*D_NET *73 0.00396704
*CONN
*I *1811:B I *D sky130_fd_sc_hd__xnor2_4
*I *1810:X O *D sky130_fd_sc_hd__xor2_2
*CAP
1 *1811:B 0.000127215
2 *1810:X 7.89595e-05
3 *73:16 0.00132929
4 *73:8 0.00128104
5 *73:8 *82:8 4.80826e-05
6 uo_out[4] *73:16 2.26406e-05
7 *1800:A_N *73:16 0
8 *1806:C1 *73:16 5.79559e-05
9 *1809:A1 *73:16 0.000313463
10 *1809:A2 *73:16 5.94125e-05
11 *43:14 *1811:B 9.36522e-05
12 *58:10 *73:8 3.54728e-05
13 *58:16 *73:16 0.000139346
14 *64:22 *73:16 2.812e-05
15 *67:16 *73:16 5.94125e-05
16 *69:10 *73:16 3.70187e-05
17 *70:6 *73:16 0.000255962
18 *72:10 *73:16 0
*RES
1 *1810:X *73:8 39.5536 
2 *73:8 *73:16 48.4564 
3 *73:16 *1811:B 41.0036 
*END

*D_NET *74 0.000764447
*CONN
*I *1813:B I *D sky130_fd_sc_hd__and2_4
*I *1812:X O *D sky130_fd_sc_hd__or2_1
*CAP
1 *1813:B 0.000253588
2 *1812:X 0.000253588
3 *1813:B *1812:B 5.56279e-05
4 *1813:B *75:8 9.92345e-05
5 *1813:B *97:20 0.000102409
*RES
1 *1812:X *1813:B 49.8529 
*END

*D_NET *75 0.00407764
*CONN
*I *1812:A I *D sky130_fd_sc_hd__or2_1
*I *1777:A I *D sky130_fd_sc_hd__nand2_2
*I *1781:A1 I *D sky130_fd_sc_hd__a31o_2
*I *1846:X O *D sky130_fd_sc_hd__buf_1
*CAP
1 *1812:A 0
2 *1777:A 0
3 *1781:A1 0.000612
4 *1846:X 0.000238376
5 *75:29 0.000172193
6 *75:16 0.0011361
7 *75:8 0.000590283
8 *75:8 *97:20 0.000177655
9 *75:16 *1812:B 0.000108681
10 *75:16 *106:12 4.95879e-05
11 uo_out[0] *75:29 0.00015192
12 *1780:B *1781:A1 0.000636844
13 *1780:B *75:16 2.31687e-05
14 *1781:A3 *1781:A1 5.50049e-05
15 *1813:B *75:8 9.92345e-05
16 *8:19 *75:8 2.65879e-05
*RES
1 *1846:X *75:8 28.4064 
2 *75:8 *75:16 35.0336 
3 *75:16 *1781:A1 32.1971 
4 *75:16 *75:29 34.0186 
5 *75:29 *1777:A 23 
6 *75:8 *1812:A 23 
*END

*D_NET *76 0.00181885
*CONN
*I *1779:B I *D sky130_fd_sc_hd__xor2_4
*I *1778:B I *D sky130_fd_sc_hd__and2_1
*I *1847:X O *D sky130_fd_sc_hd__clkbuf_2
*CAP
1 *1779:B 0
2 *1778:B 0.000224183
3 *1847:X 0.000377128
4 *76:10 0.000601311
5 *1778:B *1778:A 6.52436e-05
6 *1778:B *86:14 4.21594e-06
7 *1778:B *97:32 9.10197e-05
8 *1778:B *102:8 0
9 *76:10 *86:10 0.000140259
10 *76:10 *86:14 1.7992e-05
11 *76:10 *101:16 9.31634e-05
12 *1780:B *1778:B 5.3304e-05
13 *11:17 *1778:B 6.07611e-06
14 *11:17 *76:10 3.31127e-05
15 *48:8 *1778:B 0.000111842
*RES
1 *1847:X *76:10 45.1879 
2 *76:10 *1778:B 42.4743 
3 *76:10 *1779:B 38 
*END

*D_NET *77 0.00309107
*CONN
*I *1795:A2 I *D sky130_fd_sc_hd__a31o_1
*I *1783:B I *D sky130_fd_sc_hd__nand2_1
*I *1782:B I *D sky130_fd_sc_hd__or2_1
*I *1848:X O *D sky130_fd_sc_hd__buf_1
*CAP
1 *1795:A2 0
2 *1783:B 0
3 *1782:B 0.000572648
4 *1848:X 0.000259361
5 *77:12 0.000724717
6 *77:10 0.000411431
7 *1782:B *1782:A 0.000273621
8 *1782:B *97:38 1.01436e-05
9 *77:10 *101:26 0.000110913
10 *77:12 *97:38 0.000175612
11 uo_out[2] *1782:B 0
12 *1790:A2 *77:10 1.22803e-05
13 *1790:A2 *77:12 1.37349e-05
14 *1796:A2 *1782:B 9.41704e-05
15 *15:19 *77:10 9.84851e-05
16 *52:27 *1782:B 9.5877e-05
17 *53:10 *77:10 0
18 *54:8 *77:10 0.000140949
19 *55:23 *77:10 2.45709e-05
20 *56:14 *77:10 4.09412e-06
21 *62:10 *1782:B 6.84574e-05
*RES
1 *1848:X *77:10 43.1164 
2 *77:10 *77:12 2.96214 
3 *77:12 *1782:B 47.2179 
4 *77:12 *1783:B 38 
5 *77:10 *1795:A2 38 
*END

*D_NET *78 0.00123532
*CONN
*I *1787:B I *D sky130_fd_sc_hd__or2_1
*I *1788:B I *D sky130_fd_sc_hd__and2_1
*I *1786:B I *D sky130_fd_sc_hd__nor2_1
*I *1849:X O *D sky130_fd_sc_hd__clkbuf_1
*CAP
1 *1787:B 0.000165343
2 *1788:B 2.00578e-05
3 *1786:B 0
4 *1849:X 0
5 *78:19 0.000307394
6 *78:10 7.52992e-05
7 *78:4 0.000197292
8 *1787:B *101:26 2.65879e-05
9 *78:10 *101:34 0.00014411
10 *78:19 *1793:B 0
11 *78:19 *79:6 0
12 *78:19 *101:26 2.7237e-05
13 *55:10 *1787:B 0.000130045
14 *55:10 *1788:B 0
15 *55:23 *1787:B 8.6949e-05
16 *56:14 *1787:B 5.50049e-05
17 *59:8 *78:10 0
*RES
1 *1849:X *78:4 23 
2 *78:4 *78:10 31.9057 
3 *78:10 *1786:B 23 
4 *78:4 *78:19 2.07143 
5 *78:19 *1788:B 23.4971 
6 *78:19 *1787:B 26.9564 
*END

*D_NET *79 0.000622732
*CONN
*I *1793:B I *D sky130_fd_sc_hd__nand2_1
*I *1792:B I *D sky130_fd_sc_hd__nor2_1
*I *1850:X O *D sky130_fd_sc_hd__clkbuf_1
*CAP
1 *1793:B 2.75196e-05
2 *1792:B 0.000179638
3 *1850:X 2.00578e-05
4 *79:6 0.000227215
5 *1792:B *1792:A 0.00010018
6 *20:19 *1792:B 1.14154e-05
7 *58:10 *1792:B 5.67058e-05
8 *78:19 *1793:B 0
9 *78:19 *79:6 0
*RES
1 *1850:X *79:6 23.4971 
2 *79:6 *1792:B 26.9771 
3 *79:6 *1793:B 24.1186 
*END

*D_NET *80 0.00204327
*CONN
*I *1799:B I *D sky130_fd_sc_hd__nand2_1
*I *1798:B I *D sky130_fd_sc_hd__nor2_1
*I *1851:X O *D sky130_fd_sc_hd__clkbuf_1
*CAP
1 *1799:B 0
2 *1798:B 0.000126172
3 *1851:X 0.000203032
4 *80:18 0.000276861
5 *80:10 0.000353721
6 *1798:B *1798:A 5.67058e-05
7 *1798:B *81:8 6.00074e-05
8 *80:10 *105:16 4.96264e-05
9 *80:18 *1810:B 8.97405e-05
10 *80:18 *81:8 0.000120759
11 *20:19 *80:18 7.87147e-05
12 *58:10 *1798:B 1.24376e-05
13 *58:10 *80:18 0.000418192
14 *59:12 *80:10 0.000139346
15 *63:10 *1798:B 5.79559e-05
*RES
1 *1851:X *80:10 41.1279 
2 *80:10 *80:18 21.0279 
3 *80:18 *1798:B 26.5214 
4 *80:18 *1799:B 23 
*END

*D_NET *81 0.00238253
*CONN
*I *1803:B I *D sky130_fd_sc_hd__nand2_1
*I *1804:B I *D sky130_fd_sc_hd__or2_1
*I *1852:X O *D sky130_fd_sc_hd__clkbuf_1
*CAP
1 *1803:B 0
2 *1804:B 4.92513e-05
3 *1852:X 0.000694503
4 *81:8 0.000743754
5 *1804:B *1804:A 5.73288e-05
6 *81:8 *1798:A 2.93747e-05
7 *81:8 *1810:B 4.5873e-05
8 *1798:B *81:8 6.00074e-05
9 *20:19 *81:8 0.000316126
10 *63:10 *1804:B 0.000144278
11 *63:10 *81:8 9.6523e-05
12 *67:8 *1804:B 2.4754e-05
13 *80:18 *81:8 0.000120759
*RES
1 *1852:X *81:8 37.3343 
2 *81:8 *1804:B 25.0714 
3 *81:8 *1803:B 23 
*END

*D_NET *82 0.000584367
*CONN
*I *1810:B I *D sky130_fd_sc_hd__xor2_2
*I *1853:X O *D sky130_fd_sc_hd__buf_1
*CAP
1 *1810:B 3.88649e-05
2 *1853:X 9.46461e-05
3 *82:8 0.000133511
4 *21:17 *82:8 0.000133649
5 *73:8 *82:8 4.80826e-05
6 *80:18 *1810:B 8.97405e-05
7 *81:8 *1810:B 4.5873e-05
*RES
1 *1853:X *82:8 39.9057 
2 *82:8 *1810:B 16.0254 
*END

*D_NET *83 6.69045e-05
*CONN
*I *1814:A I *D sky130_fd_sc_hd__buf_2
*I *1815:LO O *D sky130_fd_sc_hd__conb_1
*CAP
1 *1814:A 3.34522e-05
2 *1815:LO 3.34522e-05
*RES
1 *1815:LO *1814:A 46.6214 
*END

*D_NET *84 0.000269036
*CONN
*I *1816:A I *D sky130_fd_sc_hd__buf_2
*I *1817:LO O *D sky130_fd_sc_hd__conb_1
*CAP
1 *1816:A 0
2 *1817:LO 0.000134518
3 *84:8 0.000134518
*RES
1 *1817:LO *84:8 40.61 
2 *84:8 *1816:A 38 
*END

*D_NET *85 6.69045e-05
*CONN
*I *1818:A I *D sky130_fd_sc_hd__buf_2
*I *1819:LO O *D sky130_fd_sc_hd__conb_1
*CAP
1 *1818:A 3.34522e-05
2 *1819:LO 3.34522e-05
*RES
1 *1819:LO *1818:A 46.6214 
*END

*D_NET *86 0.00394172
*CONN
*I *1779:A I *D sky130_fd_sc_hd__xor2_4
*I *1778:A I *D sky130_fd_sc_hd__and2_1
*I *1854:X O *D sky130_fd_sc_hd__clkbuf_2
*CAP
1 *1779:A 0
2 *1778:A 0.0001863
3 *1854:X 0.000641634
4 *86:14 0.000245126
5 *86:10 0.00070046
6 *1778:A *97:32 0
7 *1778:A *101:10 8.16149e-05
8 *1778:A *106:12 0.000358425
9 *86:10 *97:20 0.000418488
10 *86:14 *104:8 0
11 *1778:B *1778:A 6.52436e-05
12 *1778:B *86:14 4.21594e-06
13 *1780:B *1778:A 8.24045e-05
14 *1781:A3 *1778:A 5.41385e-05
15 *1781:B1 *1778:A 5.67058e-05
16 *8:19 *86:10 0.00058669
17 *11:17 *86:10 0.000235159
18 *12:15 *1778:A 0
19 *12:15 *86:14 0
20 *48:8 *1778:A 6.6869e-05
21 *76:10 *86:10 0.000140259
22 *76:10 *86:14 1.7992e-05
*RES
1 *1854:X *86:10 38.08 
2 *86:10 *86:14 16.2014 
3 *86:14 *1778:A 44.9186 
4 *86:14 *1779:A 38 
*END

*D_NET *87 0.000269036
*CONN
*I *1820:A I *D sky130_fd_sc_hd__buf_2
*I *1821:LO O *D sky130_fd_sc_hd__conb_1
*CAP
1 *1820:A 0
2 *1821:LO 0.000134518
3 *87:8 0.000134518
4 *87:8 *88:8 0
*RES
1 *1821:LO *87:8 40.61 
2 *87:8 *1820:A 38 
*END

*D_NET *88 0.000269036
*CONN
*I *1822:A I *D sky130_fd_sc_hd__buf_2
*I *1823:LO O *D sky130_fd_sc_hd__conb_1
*CAP
1 *1822:A 0
2 *1823:LO 0.000134518
3 *88:8 0.000134518
4 *88:8 *89:8 0
5 *87:8 *88:8 0
*RES
1 *1823:LO *88:8 40.61 
2 *88:8 *1822:A 38 
*END

*D_NET *89 0.000269036
*CONN
*I *1824:A I *D sky130_fd_sc_hd__buf_2
*I *1825:LO O *D sky130_fd_sc_hd__conb_1
*CAP
1 *1824:A 0
2 *1825:LO 0.000134518
3 *89:8 0.000134518
4 *89:8 *90:8 0
5 *88:8 *89:8 0
*RES
1 *1825:LO *89:8 40.61 
2 *89:8 *1824:A 38 
*END

*D_NET *90 0.000269036
*CONN
*I *1826:A I *D sky130_fd_sc_hd__buf_2
*I *1827:LO O *D sky130_fd_sc_hd__conb_1
*CAP
1 *1826:A 0
2 *1827:LO 0.000134518
3 *90:8 0.000134518
4 *89:8 *90:8 0
*RES
1 *1827:LO *90:8 40.61 
2 *90:8 *1826:A 38 
*END

*D_NET *91 6.69045e-05
*CONN
*I *1828:A I *D sky130_fd_sc_hd__buf_2
*I *1829:LO O *D sky130_fd_sc_hd__conb_1
*CAP
1 *1828:A 3.34522e-05
2 *1829:LO 3.34522e-05
*RES
1 *1829:LO *1828:A 46.6214 
*END

*D_NET *92 0.000336227
*CONN
*I *1830:A I *D sky130_fd_sc_hd__buf_2
*I *1831:LO O *D sky130_fd_sc_hd__conb_1
*CAP
1 *1830:A 0.000146262
2 *1831:LO 0.000146262
3 *1830:A *1832:A 4.37033e-05
*RES
1 *1831:LO *1830:A 49.0243 
*END

*D_NET *93 0.000567195
*CONN
*I *1832:A I *D sky130_fd_sc_hd__buf_2
*I *1833:LO O *D sky130_fd_sc_hd__conb_1
*CAP
1 *1832:A 0.000139085
2 *1833:LO 0.000122661
3 *93:8 0.000261746
4 *93:8 *94:8 0
5 *1830:A *1832:A 4.37033e-05
*RES
1 *1833:LO *93:8 40.2579 
2 *93:8 *1832:A 40.5479 
*END

*D_NET *94 0.000269036
*CONN
*I *1834:A I *D sky130_fd_sc_hd__buf_2
*I *1835:LO O *D sky130_fd_sc_hd__conb_1
*CAP
1 *1834:A 0
2 *1835:LO 0.000134518
3 *94:8 0.000134518
4 *94:8 *95:8 0
5 *93:8 *94:8 0
*RES
1 *1835:LO *94:8 40.61 
2 *94:8 *1834:A 38 
*END

*D_NET *95 0.000277818
*CONN
*I *1836:A I *D sky130_fd_sc_hd__buf_2
*I *1837:LO O *D sky130_fd_sc_hd__conb_1
*CAP
1 *1836:A 0
2 *1837:LO 0.000138909
3 *95:8 0.000138909
4 *94:8 *95:8 0
*RES
1 *1837:LO *95:8 40.61 
2 *95:8 *1836:A 38 
*END

*D_NET *96 0.000522548
*CONN
*I *1838:A I *D sky130_fd_sc_hd__buf_2
*I *1839:LO O *D sky130_fd_sc_hd__conb_1
*CAP
1 *1838:A 4.6695e-05
2 *1839:LO 0.000214579
3 *96:12 0.000261274
*RES
1 *1839:LO *96:12 41.8529 
2 *96:12 *1838:A 38.6214 
*END

*D_NET *97 0.00773828
*CONN
*I *1795:A1 I *D sky130_fd_sc_hd__a31o_1
*I *1783:A I *D sky130_fd_sc_hd__nand2_1
*I *1782:A I *D sky130_fd_sc_hd__or2_1
*I *1855:X O *D sky130_fd_sc_hd__buf_1
*CAP
1 *1795:A1 2.1727e-05
2 *1783:A 4.24639e-05
3 *1782:A 0.000341808
4 *1855:X 0.000707766
5 *97:38 0.000510603
6 *97:32 0.000909245
7 *97:20 0.00146895
8 *1795:A1 *105:10 4.00259e-06
9 *97:20 *1812:B 2.93335e-05
10 *97:32 *101:10 0
11 *97:32 *102:8 5.65077e-05
12 *97:32 *105:10 0.000260847
13 *97:32 *106:6 9.75074e-05
14 *97:32 *106:12 0.000357631
15 *97:38 *105:10 9.5877e-05
16 *1778:A *97:32 0
17 *1778:B *97:32 9.10197e-05
18 *1782:B *1782:A 0.000273621
19 *1782:B *97:38 1.01436e-05
20 *1790:A2 *1782:A 0.000164282
21 *1790:A2 *97:38 0.000175612
22 *1795:A3 *97:32 7.53384e-06
23 *1795:A3 *97:38 4.96717e-05
24 *1796:A2 *1782:A 2.18506e-05
25 *1796:A3 *1782:A 9.58714e-05
26 *1813:B *97:20 0.000102409
27 *8:19 *97:20 0.000114725
28 *11:17 *97:20 0.000339166
29 *49:10 *97:32 9.84851e-05
30 *49:25 *1783:A 2.64616e-05
31 *50:10 *1782:A 0.000252161
32 *52:8 *1782:A 5.94125e-05
33 *62:10 *1782:A 0.000179824
34 *75:8 *97:20 0.000177655
35 *77:12 *97:38 0.000175612
36 *86:10 *97:20 0.000418488
*RES
1 *1855:X *97:20 39.6129 
2 *97:20 *97:32 45.1836 
3 *97:32 *97:38 18.7079 
4 *97:38 *1782:A 48.7507 
5 *97:38 *1783:A 38.6214 
6 *97:32 *1795:A1 23.4971 
*END

*D_NET *98 0.000372998
*CONN
*I *1840:A I *D sky130_fd_sc_hd__buf_2
*I *1841:LO O *D sky130_fd_sc_hd__conb_1
*CAP
1 *1840:A 3.42813e-05
2 *1841:LO 0.000142477
3 *98:8 0.000176759
4 *98:8 *99:8 0
5 *35:14 *1840:A 1.94812e-05
*RES
1 *1841:LO *98:8 40.61 
2 *98:8 *1840:A 38.6214 
*END

*D_NET *99 0.000368151
*CONN
*I *1842:A I *D sky130_fd_sc_hd__buf_2
*I *1843:LO O *D sky130_fd_sc_hd__conb_1
*CAP
1 *1842:A 4.24211e-05
2 *1843:LO 0.000141654
3 *99:8 0.000184075
4 *99:8 *100:8 0
5 *98:8 *99:8 0
*RES
1 *1843:LO *99:8 40.61 
2 *99:8 *1842:A 38.6214 
*END

*D_NET *100 0.000368151
*CONN
*I *1844:A I *D sky130_fd_sc_hd__buf_2
*I *1845:LO O *D sky130_fd_sc_hd__conb_1
*CAP
1 *1844:A 4.24211e-05
2 *1845:LO 0.000141654
3 *100:8 0.000184075
4 *99:8 *100:8 0
*RES
1 *1845:LO *100:8 40.61 
2 *100:8 *1844:A 38.6214 
*END

*D_NET *101 0.00536211
*CONN
*I *1787:A I *D sky130_fd_sc_hd__or2_1
*I *1788:A I *D sky130_fd_sc_hd__and2_1
*I *1786:A I *D sky130_fd_sc_hd__nor2_1
*I *1856:X O *D sky130_fd_sc_hd__buf_1
*CAP
1 *1787:A 0
2 *1788:A 0
3 *1786:A 0
4 *1856:X 0.000774436
5 *101:34 0.000161326
6 *101:26 0.000662111
7 *101:16 0.00118074
8 *101:10 0.00145439
9 *101:10 *104:8 0
10 *101:34 *105:10 3.22879e-05
11 *1778:A *101:10 8.16149e-05
12 *1787:B *101:26 2.65879e-05
13 *9:17 *101:10 3.7122e-06
14 *12:15 *101:10 4.2361e-05
15 *15:19 *101:16 3.80755e-05
16 *15:19 *101:26 0.000224605
17 *16:19 *101:16 2.98648e-05
18 *16:19 *101:26 1.62015e-05
19 *16:19 *101:34 0
20 *17:15 *101:34 1.44546e-05
21 *49:10 *101:10 3.21223e-05
22 *53:10 *101:26 0
23 *53:10 *101:34 2.93845e-05
24 *55:10 *101:26 0.000112463
25 *55:23 *101:16 6.99492e-05
26 *56:14 *101:34 0
27 *76:10 *101:16 9.31634e-05
28 *77:10 *101:26 0.000110913
29 *78:10 *101:34 0.00014411
30 *78:19 *101:26 2.7237e-05
31 *97:32 *101:10 0
*RES
1 *1856:X *101:10 48.3571 
2 *101:10 *101:16 24.2179 
3 *101:16 *101:26 38.265 
4 *101:26 *101:34 33.5836 
5 *101:34 *1786:A 23 
6 *101:26 *1788:A 23 
7 *101:16 *1787:A 23 
*END

*D_NET *102 0.00603954
*CONN
*I *1793:A I *D sky130_fd_sc_hd__nand2_1
*I *1792:A I *D sky130_fd_sc_hd__nor2_1
*I *1857:X O *D sky130_fd_sc_hd__clkbuf_1
*CAP
1 *1793:A 0
2 *1792:A 3.84812e-05
3 *1857:X 0.000318135
4 *102:18 0.000206615
5 *102:12 0.000671912
6 *102:8 0.000821913
7 *102:12 *103:12 0.00216848
8 *102:12 *104:12 0.00148426
9 uo_out[0] *102:8 0
10 *1778:B *102:8 0
11 *1792:B *1792:A 0.00010018
12 *10:15 *102:8 0.000173065
13 *11:17 *102:8 0
14 *18:15 *102:18 0
15 *19:17 *102:18 0
16 *39:8 *102:8 0
17 *97:32 *102:8 5.65077e-05
*RES
1 *1857:X *102:8 44.1314 
2 *102:8 *102:12 38.9664 
3 *102:12 *102:18 32.61 
4 *102:18 *1792:A 24.0979 
5 *102:18 *1793:A 23 
*END

*D_NET *103 0.00823923
*CONN
*I *1799:A I *D sky130_fd_sc_hd__nand2_1
*I *1798:A I *D sky130_fd_sc_hd__nor2_1
*I *1858:X O *D sky130_fd_sc_hd__buf_1
*CAP
1 *1799:A 0
2 *1798:A 1.39194e-05
3 *1858:X 7.11285e-05
4 *103:18 0.000157365
5 *103:12 0.00260161
6 *103:10 0.00245816
7 *103:8 7.11285e-05
8 *103:12 *104:12 0.000576134
9 *1798:B *1798:A 5.67058e-05
10 *8:19 *103:8 3.52294e-05
11 *21:17 *103:18 0
12 *81:8 *1798:A 2.93747e-05
13 *102:12 *103:12 0.00216848
*RES
1 *1858:X *103:8 39.2014 
2 *103:8 *103:10 15 
3 *103:10 *103:12 38.2593 
4 *103:12 *103:18 32.2579 
5 *103:18 *1798:A 23.6214 
6 *103:18 *1799:A 23 
*END

*D_NET *104 0.00611128
*CONN
*I *1803:A I *D sky130_fd_sc_hd__nand2_1
*I *1804:A I *D sky130_fd_sc_hd__or2_1
*I *1859:X O *D sky130_fd_sc_hd__clkbuf_1
*CAP
1 *1803:A 0
2 *1804:A 2.58588e-05
3 *1859:X 0.000297625
4 *104:18 0.000217919
5 *104:12 0.00144917
6 *104:8 0.00155474
7 *1804:B *1804:A 5.73288e-05
8 *12:15 *104:8 0.000112954
9 *13:15 *104:8 0.000123643
10 *49:10 *104:8 1.83564e-05
11 *63:10 *1804:A 4.94226e-05
12 *67:8 *1804:A 0.000143869
13 *86:14 *104:8 0
14 *101:10 *104:8 0
15 *102:12 *104:12 0.00148426
16 *103:12 *104:12 0.000576134
*RES
1 *1859:X *104:8 44.4836 
2 *104:8 *104:12 48.9714 
3 *104:12 *104:18 32.9621 
4 *104:18 *1804:A 24.5743 
5 *104:18 *1803:A 23 
*END

*D_NET *105 0.00347272
*CONN
*I *1810:A I *D sky130_fd_sc_hd__xor2_2
*I *1860:X O *D sky130_fd_sc_hd__buf_1
*CAP
1 *1810:A 0
2 *1860:X 0.000953576
3 *105:16 0.000144908
4 *105:10 0.00109848
5 *1790:A2 *105:10 0.000164508
6 *1795:A1 *105:10 4.00259e-06
7 *19:17 *105:10 5.70419e-05
8 *19:17 *105:16 0.000190218
9 *53:10 *105:10 3.58358e-05
10 *59:12 *105:10 0.000120042
11 *61:10 *105:10 0.000265466
12 *80:10 *105:16 4.96264e-05
13 *97:32 *105:10 0.000260847
14 *97:38 *105:10 9.5877e-05
15 *101:34 *105:10 3.22879e-05
*RES
1 *1860:X *105:10 41.8914 
2 *105:10 *105:16 33.3143 
3 *105:16 *1810:A 23 
*END

*D_NET *106 0.00506626
*CONN
*I *1781:A2 I *D sky130_fd_sc_hd__a31o_2
*I *1812:B I *D sky130_fd_sc_hd__or2_1
*I *1777:B I *D sky130_fd_sc_hd__nand2_2
*I *1861:X O *D sky130_fd_sc_hd__buf_1
*CAP
1 *1781:A2 7.27282e-05
2 *1812:B 0.000135432
3 *1777:B 0.000373524
4 *1861:X 0.00038231
5 *106:12 0.00116587
6 *106:6 0.00111195
7 uo_out[0] *1777:B 0
8 *1778:A *106:12 0.000358425
9 *1780:B *106:12 0.000274125
10 *1781:A3 *1781:A2 5.50049e-05
11 *1781:A3 *106:12 1.76557e-05
12 *1813:A *1812:B 6.86685e-05
13 *1813:B *1812:B 5.56279e-05
14 *46:10 *1777:B 0.000271128
15 *46:10 *1812:B 5.3835e-05
16 *49:10 *106:6 2.7237e-05
17 *75:16 *1812:B 0.000108681
18 *75:16 *106:12 4.95879e-05
19 *97:20 *1812:B 2.93335e-05
20 *97:32 *106:6 9.75074e-05
21 *97:32 *106:12 0.000357631
*RES
1 *1861:X *106:6 28.3857 
2 *106:6 *106:12 30.0386 
3 *106:12 *1777:B 45.4157 
4 *106:12 *1812:B 41.5836 
5 *106:6 *1781:A2 24.0979 
*END
